Na Cl 
 1.0000000000000000
    25.0000000000000000    0.0000000000000000    0.0000000000000000
     0.0000000000000000   25.0000000000000000    0.0000000000000000
     0.0000000000000000    0.0000000000000000   25.0000000000000000
 30000 30000
Cartesian
 17.7008851299999996 23.7763478200000016  9.0777807300000006
 20.2607782100000016 22.8993248399999985 18.9526153000000015
 11.6053499799999997  1.1171157199999999  0.3639803400000000
 17.4175510600000010 11.7806878200000007 23.0202387799999997
  1.1531356600000000  5.7510562299999997  8.0020035899999993
 14.6743155299999994  6.2210611099999999  7.3740701900000003
 10.9977236000000005 13.7404651700000002 10.9980750300000008
 19.6470260500000009  7.5667866799999999 24.9836866399999984
  0.8213492999999999  4.4177616000000004 24.3192711099999990
  8.9896186799999995 13.5210916300000008 23.9871035699999986
  1.2496581800000000  3.0049851599999999  4.7856578599999997
  7.5516961699999996 21.3574729400000010  5.0476642700000003
 11.0933829799999994 21.4878273600000007 20.9145165400000010
 10.2794520800000004 16.7511718000000016 11.9443753899999994
 24.1171902600000010 12.6167394399999999 24.5397613499999991
 14.7690062599999994 22.6882056299999988 20.6720609899999985
 10.3290525800000008  0.3866764300000000 23.8706799200000006
 19.5174469700000017  4.7312305400000003 17.7917653199999997
  1.1997257100000001 13.7900618900000005 19.5701860699999983
 16.1172466199999995  7.5639336100000003  2.0321091600000001
  3.6587302400000001 17.2790718000000005  9.3597360300000005
  9.0835371200000008 17.0083984000000008 10.1519036299999996
 23.0442597499999984  4.8736546799999996 11.5141956099999998
 19.0855716099999988 21.2020404900000017 17.6944347600000000
 15.3650895199999997 16.0595321899999988 12.5574665000000003
  3.3394146299999998  0.5416200600000000  3.0083739600000001
 11.7410818500000005  7.3626845400000001 19.6390820200000000
 24.0514706800000013  8.0677453700000008 19.5964317500000007
  7.2284404300000000 13.3983716699999995 11.4325970100000003
 22.6579727700000007 12.5483630300000009  0.3374174700000000
 20.9754258299999989  8.9818560400000003  8.0545377800000004
 22.6165334700000002 16.0780017000000015 22.9745547700000010
  8.3420923299999998  5.5457086100000001  6.7246004299999997
 20.3593797800000011  5.0960359300000002 24.0758817799999996
 18.3450008900000014 24.4300327700000004 20.5608104000000012
 15.5403687900000005 11.9782936499999995 19.1813181099999994
  5.4135207100000002 10.0425931599999991 10.8631651900000001
  2.2173468800000000 16.9490941299999989 13.4250379100000004
  9.6121762200000003  1.8457723300000000 21.8955913200000012
 24.2033066699999999  9.9751858599999998  2.9486696900000000
  8.2915606000000004  6.2590307400000000 20.5295671900000016
 15.4357974500000008  4.4477243099999999  2.9025009499999999
  7.3334625300000003  3.5046707900000000  3.0018920599999999
  2.7997826899999998  5.9477339999999996 13.5653246500000009
 17.4113759500000000  7.9955963900000002  6.9885616600000002
  6.7557734399999996 19.2841259600000008  8.3050426799999997
  7.8523780399999996 24.9176716200000001 16.3069152600000002
 20.3247445700000000 22.9820386499999998  9.1235858800000003
 15.1078515099999997 17.6602579000000013 15.9545875000000006
 23.7521056100000010  1.6389536800000000 20.8944920100000004
 23.7271819599999993  7.7472135099999999  7.4174818000000000
 15.6166719199999999 19.4050082400000008 14.9735655899999998
 10.7169352500000006 19.5307832800000014  3.8745329499999999
 19.2752915300000005  9.8247303699999993 24.2432835199999985
  6.8660518899999996 22.7340899599999986 16.8500083799999985
 23.0908593899999985 13.0736878900000004  4.4723691299999997
 17.1080068599999997  9.2713773100000001 24.0383834900000011
 13.1113548600000005 12.5411174299999999  3.5606770700000001
 19.2994757899999989 16.2895657699999994  3.7318353000000002
 20.9558475999999985  4.9305738799999999 18.1551806099999986
  9.1205646599999994 14.3301720899999996 22.2023403399999992
  4.7340530699999999 15.2299329700000001 19.4834425899999992
  8.2196157000000003 22.0810669699999984 16.4925539400000005
 15.3540037199999997  4.7404854299999997 23.3387020999999990
  3.5661794000000002 11.7772245699999996 14.8133783399999999
 18.4498231900000000 11.1784281599999993  0.8421026200000000
  3.2186909400000001 21.5385628599999990 23.6260136000000003
  7.4105767699999996 24.5637466800000013 17.8904167100000002
  9.2336626499999994 15.1682149800000001  7.1891787999999996
  3.5280261799999999 20.5359858300000013 23.3138843400000013
 11.4541556000000000  9.9932381199999991  6.3531354599999998
  2.1476173200000002 20.0042994800000002 12.2613369500000005
  1.2901931400000000  9.2761460699999994  4.1870571200000004
 21.8690607999999997  3.3049184399999998 20.7641853199999993
  8.6627282000000001 19.4728737900000013  5.5897954199999997
 22.6915885199999998  2.5282857500000002 17.8985762400000006
 21.3708266800000004  4.4840641999999997 13.6670751599999996
  2.5321482199999998  7.8151786999999997 24.7083589900000007
 23.3895431299999998  8.0513273999999999 18.6595872000000007
 11.6820956799999998 15.9820116700000003  9.6700790800000007
  0.0191797600000000 22.3542579900000007  8.0140430600000006
 17.0217665199999999  9.8299427099999992 11.8471608400000008
 15.2322983099999991  9.2376809000000009  7.7029336199999996
 13.2052896999999998 16.3039123900000007 19.8556197700000006
 13.4014186300000002 12.6428789899999998 13.8671299500000007
 14.8530817899999992 10.7456321799999994  1.8399848700000001
 24.6257566399999988 10.0918140300000001 13.1184179400000005
  6.2503124000000003 24.0005643900000010  2.4857317200000000
  2.6930608600000001 12.2738174699999991 11.0501941200000005
 20.6126227700000015 11.3509317400000000  0.1098335100000000
 20.9718681700000005 24.1883948999999987  9.3531239900000003
 22.9549634100000013  4.0701065500000002  6.2807257999999999
 10.1585457100000003  9.6778299400000005  5.2877264700000000
 20.8187880700000001  1.3710480100000000 18.2038592500000007
  2.2624017200000002 24.1857343000000000 14.6363805899999999
 18.6486286200000002  2.5012129999999999 12.8869679799999997
 16.2708675400000011 14.4708257600000003 11.1685233799999999
  9.3724892400000002 23.4266599400000004  6.8736117400000003
 24.7924556600000017 11.8022868299999999 11.0348329799999991
 12.4379189199999995 19.1032226099999995 17.8623282000000003
 12.1500038099999994  5.1140897499999998  2.5063702100000000
 24.5642031900000006  0.5629978100000000 12.3042688099999999
 22.8458288799999991 19.8460099499999991  1.8892232000000000
  2.1743025800000000 18.5033902099999992 11.4793374600000000
  8.2247000499999992  7.5336710499999997 18.4092844999999983
  4.8446562999999996 24.1383982099999983 19.0587487399999986
 20.3900619700000014 20.7715932499999987  8.1677409300000008
  0.2217705400000000  2.2974028799999999 12.4502795200000005
  1.8479334999999999  8.2183580299999992  0.9434132100000000
  5.9458921699999996  7.6096863199999998 20.9979332800000016
 12.2647183799999997  8.1217648400000009  2.5016370800000001
 20.0144424699999988  7.7345295299999997 19.2377487800000004
  3.8436660699999998  0.4956005000000000  4.5576489300000000
  0.4055982700000000 16.8901076400000001 22.0390822399999990
 10.8551662899999997 17.7798889299999985  1.5932648899999999
  3.0030327300000002 21.9710611699999987 17.6251247999999983
  0.4724405500000000 15.3082823300000008 11.3011803099999995
 13.9374112900000000 21.0715370399999991 24.3229486699999988
 20.7983699000000009  8.2029522900000007 17.0191388400000001
 15.6665236199999995  7.2624477699999996  9.9596839599999996
 17.4082500700000011  5.4589404899999998 23.4127589100000009
 23.2390756699999983  4.1448035299999999 11.7129232099999996
  9.1003744900000001 24.9940624199999988  0.2071395300000000
  6.3940547099999998 14.8774894599999996 20.9653638899999990
 14.8708430400000005  9.2590084699999995 16.1553415200000003
 22.8249196000000012 18.4236382300000017 21.0877929000000002
 22.5352384299999997 24.7522173199999997 10.5165231400000003
  1.2044809200000000 18.7107925199999983 22.2898123400000010
 24.8760386999999987 16.5823495899999998 24.5495719500000007
  4.6557364500000000 23.9625846699999983 14.1605981700000001
 22.1734289999999987 18.8211997500000017  2.9041587600000001
 10.1963153900000005 19.4726839799999993  2.3995716499999999
  4.6006966599999997 23.9088260000000012 10.6385509400000000
  2.1256765500000001  1.2457372200000001 12.1053907299999999
  5.3019347699999999  9.6177495499999992 20.5166511100000015
 23.3552063200000006  5.9526631999999999 21.4103781499999997
 19.2255419200000013 23.6830266400000014 15.6287708399999996
 22.7514952800000003  9.3811036699999999 18.2094041000000004
 20.4546980199999986  7.1096043499999997 16.1202849000000015
  8.6282537900000005 15.0615174700000001 13.9241900600000008
 23.8623261299999996  4.1153173399999998 16.1386126999999995
 16.6635822500000010 14.8268184999999999 19.3386016000000005
 23.8771549999999984  3.3440898200000002  4.1175847900000004
  4.2475525300000001 13.6153877699999999  8.8221827800000003
 24.4259764600000011  2.3862860800000001  6.3100771900000003
  3.4673179900000002  0.2133994400000000 11.6043279800000008
  8.9403874499999993 11.0918978300000006 21.5267965699999984
  0.8699021300000001 20.4451093499999992 20.9529217400000007
  5.7557348900000003 11.6362747700000000 20.8700157699999984
 12.3550173799999996  0.7770512600000000  9.9005367500000006
 23.3212187100000001  9.7227976500000004 11.0600529499999993
 11.3099691599999996 11.6517177099999998  5.4196170400000003
 12.5036585700000007 23.9895331899999995 17.0843267700000006
 11.2799562400000006  7.2246096099999999 24.0137666600000017
 24.3762137400000007 16.0242700599999992 19.9068282799999992
 24.0629415800000004  0.8591995000000000 15.5659905500000004
 17.6031309500000006  5.8218678500000003 23.1329324900000017
 20.1963247599999995 14.6302287900000003 15.2552469700000000
 19.9358324499999995 11.5359816199999994 10.2430400499999994
  4.7740973300000000 13.2538616099999995  7.6521412900000003
  9.5385842699999994 14.9857448400000006 15.4134709799999996
  4.2067760500000002  3.2850804400000002 12.3469630699999993
 15.4082553600000001 16.5479184799999999 20.8658723100000003
 17.7159837099999997  2.5381533699999999  8.7436453499999995
  4.4473638500000003 21.8443041700000009 12.2201056000000001
  8.3148926700000008 23.4010234100000005  1.0004828699999999
 15.1155770799999996 22.5040284200000009  0.2056661100000000
  6.6302484200000000  9.5851362600000005 22.3851404699999996
  2.0559174599999999  3.8047507500000002 21.4459214899999999
 16.6025245300000002 13.6297593399999997  0.3652649800000000
 14.0085472600000003 16.6537277800000005 24.2028443300000013
  2.2045794800000000  2.3672670500000002 11.6572862100000005
 24.0092972399999987 24.2587215799999996 16.3336719499999994
 20.0244003500000005  0.0967403200000000  0.9145175000000000
 20.2956135400000015  8.3767043099999992 12.2693657199999997
 11.2297126800000004 12.7810846999999992 11.6904811199999994
  6.9161387400000001 14.5438459699999996 13.4191390399999992
 10.4698826999999994 17.3184664400000017 21.4654882399999991
 20.4608866899999988 11.1226387800000008 13.1900416899999993
 10.0306249500000000  9.7135400099999991  5.4669405900000001
  7.8705654300000001  5.5931540799999997  4.1406464200000004
 16.8443812599999987  3.5158393000000001 15.7110976499999992
  6.4181660200000001 20.1163241200000016 20.0594030399999994
 13.3869168999999992 18.9123265799999984  9.4727731399999993
  8.8980865700000003  0.1409924400000000 19.6598666800000004
 23.3793103199999983 11.0686238600000006  5.3611434600000001
  4.7380573100000003  7.5292735500000001 19.5005750800000008
 21.1654368999999996  2.4979833100000000  8.6054230500000006
  6.3451982800000000 18.7475446099999985 14.9822886200000003
  7.3247887199999999  7.7240645499999996 18.3528175199999986
  5.8040541399999999 23.7379156999999985 13.1491337799999997
 22.4915205600000014 14.9860615900000003 20.7371630099999997
  4.4987157399999997  9.9153705599999995 22.6329506900000013
 17.0023240599999994  8.0604385000000001 21.7899368100000004
 23.4680154600000002  1.9358135800000000 10.2187867000000008
 22.1480243899999998 16.8459940900000014  5.6226648900000002
  0.1287762100000000 14.3417215700000007 16.3144942800000017
 22.7053610200000016  9.0027439000000005  9.1167008500000009
 24.3912644800000002 18.9821118200000001  7.3534058900000003
 13.6928047500000005  9.9693769900000007  5.3190176899999999
 21.7302580799999987 20.4475748999999993 12.3913947199999992
 12.1710612099999995  9.0258338600000005 22.1897641499999985
 18.3661245199999996  4.4548822599999998 23.2061230000000016
  0.3092393200000000 22.3851909000000013  2.9035132500000000
 24.3472066600000012  3.5023152099999999 13.4118118400000004
 12.3215710800000000 13.6451443099999992  8.9404832800000005
 12.7025646200000004 17.0035964300000018  4.4452098700000002
 10.6422591999999998 14.4503811700000000 17.5562812100000016
 18.4182917099999983  6.2287472700000004 11.5553385500000001
 10.5750358799999997  9.6280841699999993 19.2105902899999990
 22.3910275699999985  1.0003995000000001 13.7144613300000007
 23.9515060899999987  2.9628601400000001 21.7903808199999993
  5.9304585500000000 23.2168080900000007  4.8934996599999998
 20.0488134000000002 10.4068665899999999  8.2068287200000007
  7.1703367199999999 11.8492555199999998  0.4374594900000000
  2.3816405999999999  3.2336304800000000 22.6274676499999998
 24.8487826200000015  8.4894997599999993  8.0224208499999996
  7.8271498199999998  0.9070946400000000 20.5395700199999993
  8.5532528699999997  4.5210488499999997 10.2680402399999995
 24.9522969500000009 23.2547978499999992 18.3874871300000002
 13.4962244499999997  6.0443106699999998 11.7294603300000002
 12.0397912700000003  2.7719483100000000 13.1353161800000002
 15.2590785499999999  9.3331553100000004 12.3412706199999995
 19.7353913299999988 17.7220964499999987  5.2750982999999998
  8.5770453900000003  4.4019511099999997  8.5923165800000003
 11.0647960899999998 16.0278011700000000  4.2541863800000002
  0.1104312100000000  6.0174044400000000  9.5163660599999993
 16.5644274299999985 23.3317937600000000 12.4576869400000003
  1.3443372200000001 19.2756878200000017 16.4851662700000006
 16.1894380499999997 20.8853729199999982 20.4626101200000008
 15.0882270700000003 12.8324042499999997 24.2182018200000009
 10.3180419899999993 15.3317839700000000  6.2931453499999996
 18.8938792999999983 24.4293939900000012  9.8247927100000005
  0.2910387000000000 16.4874395500000013  4.3965988200000004
 18.6364196299999989 22.3047679400000014  1.2347575600000000
  2.5703648499999998  0.1219776100000000  0.0777086800000000
  6.0498275699999997  4.4519788100000000 24.4079280300000008
 24.0463878599999994 22.6407726499999988 23.4659573500000000
 17.3452180399999989 21.0796409400000009 10.5252528999999999
 22.9254254199999998  7.6251124499999996  5.2650026299999997
 13.8992076000000004  3.9821155300000002  2.4156646600000000
  0.0759094300000000  0.8097150500000000  8.8808171399999996
  9.8936317000000003  7.2679021400000003  1.6313167099999999
 17.5398838999999995 17.8287422900000010 22.6717513599999982
 19.1251509599999991 11.4121220599999997  3.5354513200000000
 20.3303785599999998 17.6724976799999993 21.6685512299999985
  8.3405569899999996  4.7413865199999998 13.4833135899999998
 14.0515705400000002 14.7460711300000007 12.2174101099999994
 13.0117585499999997 13.6259119900000005 10.7028238600000005
  7.3606848999999999 11.0310871400000003 24.4816262999999985
 12.6931754600000009  9.1999260799999991 23.1575451000000001
  8.8604415799999998 17.4416487700000005 16.7907968399999987
  2.9224194500000000 17.1036683700000012 11.3542688700000003
  6.1969218300000000  1.6652620600000001 13.0595064399999998
 16.1247934999999991  9.4043349200000002  8.6569878300000003
 22.9944807000000004 18.2371287600000009 11.4230275799999994
 11.8245192200000009  9.6944633299999996  9.8452450999999996
 19.0343725600000013 10.6995884799999992  2.9836582599999999
 21.3444025400000008 10.3734143700000008 20.9753312299999983
  7.3919291300000003 11.1528764999999996 21.3953295499999996
 16.3037014499999984 16.3102744900000012  1.7833897700000001
 23.4319246399999983 20.3573686299999999 21.2945340799999983
 22.2342255500000014 15.6288397099999994 23.9090152899999993
 13.8199700500000002 22.2365567400000010  4.8092094999999997
  3.3840176099999999  0.1839428200000000 16.5269919200000004
 19.1531422999999990  6.8626132899999996 14.9416357800000004
 24.0725780900000004 12.8200415499999991 16.4382722699999988
  3.0419655200000002  1.3144246900000001 16.5357492700000002
 16.3379948400000004 17.6793254200000014 11.4222991799999996
 24.5823167600000012  4.9978050900000000 23.1101345699999996
 12.0317646000000007 17.8676474300000017  1.5504241999999999
  7.9796044300000002 13.2116710200000007 23.5549114499999988
 12.3967760899999995  2.6157149199999998 12.3207315499999996
 24.5351788400000004 12.7506846700000001  0.7573122500000000
  3.1470049400000000 16.7120603999999986  4.5992079400000003
 23.8879234800000013  9.3298572400000008  6.9106190300000003
 21.7739779499999990  5.2473840200000001 17.7832438699999997
  7.9797118400000002 15.0168230900000008 12.7457466700000008
 17.7643403699999993 15.2686430699999995 20.0840406700000003
  2.4715054099999998 13.5914145499999997  5.9042579300000000
  7.8630111600000001  3.6285091600000001  9.3533809800000007
  2.2741409500000000 21.4869380600000000  5.9679121899999998
  2.7001009699999998  5.5969767800000003 18.3886812900000010
  8.5663614399999997 24.8366697099999989  4.9078303300000004
 10.9043490700000003 19.3947490199999990 17.5467155999999989
  7.6490143799999997  6.9847103500000003 17.0268081799999997
 19.5650643899999999  5.0371633899999999  9.6050386600000000
  6.8847496000000001 11.9864905000000004  6.9457656400000003
 12.4830896100000004  3.2870634500000002 20.6753609000000012
 15.7906183299999991 17.9223529699999986 20.9864150199999990
 18.6773224900000017  9.7591518799999992 22.0656793299999983
  7.8725296699999996 13.6061492299999998  3.5501472199999999
 17.3243312899999999 20.0360654899999986 21.1527687200000010
 14.5839555099999991 12.5403246599999996 15.2364790600000006
  4.5036067500000003 17.1186617800000000 13.3484889199999994
 23.0533343100000003  7.3898299600000001  0.8721908600000000
  8.9117142600000001  4.1816454099999998  5.9143234800000002
  2.0346785199999999 21.8418965800000002 21.7558199399999985
  0.0657454600000000  4.9839445400000004 15.1559056600000002
  0.3063468100000000 23.7709156099999994 17.7786831599999999
  6.3278599900000003  2.3428595200000002  1.4399024100000000
  0.4397755100000000 16.3070664100000009 22.8651840300000018
 20.1480699200000011  3.6111703899999998 17.9406738600000004
  3.9055218900000002 15.1064696000000005 19.4345288300000014
 11.1260491399999992 20.5078265699999989  0.0412043500000000
 17.5215667199999992  9.9718550599999993 21.9680199999999992
 16.5120854600000015 18.6203010499999984  1.3996918500000000
 24.6208547499999995  2.7057770900000002  0.9955265700000000
  6.8150288899999998 15.1905925199999992  8.2884841100000006
  4.5523612900000003 11.5361970300000003 13.8635184700000007
  4.1548923599999998  6.2759090400000002  4.2031690700000004
 17.6626111299999984  5.5053402100000000  3.2529317999999998
 22.0247993300000005 20.8024204600000004  1.2806252899999999
 23.4693021699999989 23.5616371099999995  0.4349838900000000
 10.7743137099999995  8.8905249600000005 23.0530821900000014
  3.1524379900000001  8.0252454400000008  5.3001448199999999
  4.5339687499999997  2.4128075899999999  2.0572208299999999
  0.7105626500000000 17.4264895099999997 12.0092153699999997
 13.8827597800000007  2.5436007100000002  0.2970999200000000
 18.3583967199999982 24.5737408299999984 10.8621060099999998
  9.4156830300000003 24.3846283899999996  7.4493061400000000
  0.4883564400000000  7.8067355500000000  7.8043490999999996
 17.6953806000000000  6.2618150999999997 17.3263638799999988
  4.1977759900000002  2.0211242399999998 19.0350707200000002
 22.4336639200000008 17.5894213099999988  0.4039695500000000
 14.5162072000000002 23.8943832900000004 17.8999908400000010
 20.1459668799999996 18.2653302199999992 10.4049722800000009
  1.3691585799999999 11.4481703199999991  9.3985661199999999
 11.7007949000000000  5.2598478999999996  2.2636478100000001
 20.1287071200000014  3.1805623000000001  5.7105564199999996
  2.3217335600000002 21.3759210800000012 15.1055221999999993
  3.5115849099999998 19.2076271600000013 22.5896877200000006
 14.8815527999999997 14.2578707300000005  7.0332908999999999
  8.5202162200000000 24.2739989399999985 23.1002163100000004
 20.3355778299999983  5.0566496900000004 12.1113955299999994
  6.2247273099999996 18.9918580100000014 21.1575535600000002
 20.0026388799999992  9.3517215399999998 24.3838958000000012
 20.1366663700000004 11.9516049100000004 20.6237252700000013
 22.9505538300000005  4.9583028400000000  9.1959040900000009
  5.5600198499999998 22.2535808300000006 15.9330519299999995
 11.8038542199999998 12.3778049299999999  8.7674746999999993
  4.9473319199999999 24.8076226300000009 16.7135903699999986
  5.3133311200000000  1.1562019600000000  7.2863281899999999
 11.3178134099999994 18.4900384399999993 12.0760039399999997
 11.3981627799999998 18.9218364600000015 19.3054297199999993
 16.3573274600000005 17.6025891200000011 21.7153002400000013
 19.0510938000000003 16.7335516700000007 15.8029759599999995
  0.6169751100000000 19.5006007399999994 21.5966698500000014
  0.2301099900000000 17.4586760000000005  2.9674672700000002
 24.2223260200000006  4.6334552899999997 24.4831421400000018
 13.1699639899999994 22.5847791200000003  7.3826204799999999
  4.7023853899999999  7.9912347300000004  8.6820913500000003
 19.9093516500000014 16.4732539600000010 15.9793684999999996
 15.2464332099999993 21.8030109299999992 18.2046806500000002
 16.0677257800000000  0.2671294400000000 14.6444665199999999
  4.5488349899999996  2.2696461999999999 20.9436914200000004
  0.6216390899999999 22.8881456300000004  6.0635988699999999
 10.9062840600000008  1.9162481800000000  6.3831210000000000
  6.1147305699999999 20.2766517499999992 14.6859697699999998
  2.0939524800000000 18.0592656600000012 22.0778953499999986
 13.1871529100000000 11.4789606099999997  1.8910150600000000
  7.2901714899999996  0.9121651200000001  5.7591439500000003
 18.9323414800000016 20.8632330699999997 23.3582749999999990
  7.5278496400000003 20.5689075000000017  1.6284080200000000
 18.6536422799999997 11.7657742299999999 22.3674584199999984
  4.8736109200000000 10.7787125600000007  7.8219308600000002
 13.1918872100000009 16.0482872599999986 23.5639537099999998
 14.3699969999999997 16.5396577399999991  7.0276469300000004
 13.6618815700000003 15.2434779200000001 22.1333497399999999
 20.2091194600000001  4.6706811100000003  0.1373838600000000
  9.0105920600000005 16.0207630799999983 10.9650717800000006
 14.9613224700000007  4.9468173200000001 16.1587019599999984
  4.3039133600000001 10.8717733899999995 21.8954133599999992
 21.2122640000000011 14.5210022399999996  4.4846598100000001
 23.6773927600000000 20.9400727400000015 14.8025322500000005
 11.1595956800000007  9.3245551599999992 17.7986003400000001
 16.0759563400000012 13.5982061000000005 20.0498969900000006
  3.6186322000000000 18.3513931700000015  6.8649515100000000
  4.2399880799999998 11.4797366699999994 14.9342464100000001
 24.8794461799999986 23.8520023099999996  5.6027542700000001
 15.4910316600000009  7.7691878100000000  1.7395426500000000
 11.4933644600000004 18.9764646600000013 12.4414606100000000
  3.6284349400000000  8.1060533800000005 13.4391556300000001
 21.8887132199999996  8.6031368900000000 17.9216383999999991
  8.9766557400000000 20.6529720999999995 14.5021105499999994
 11.9719894999999994 13.2275397600000009 15.2607491199999998
 12.4104506899999993  7.4446789400000002 22.7188990699999991
 11.5366251299999991 21.0584953900000009  5.1319770800000004
  3.1387359799999999  2.7356995999999998  3.9031450799999998
  0.1593112800000000  2.5447331800000002 19.3306342999999998
 14.9707162000000000 12.8271860899999997 11.5166905400000008
 11.0178884900000007  2.6517986400000000 18.7798243700000000
  7.5081622699999997 14.6833200399999999  7.5599547999999999
 10.1602840099999998 13.8932750600000006  4.2739754999999997
  7.7062760199999998 19.3810116500000014 11.6627570100000000
 15.9570051700000004 14.3858321700000005  7.6812141799999996
 23.1667963999999991 14.3471153200000003  6.9671337500000003
 21.6169786200000011 16.5595959099999988 17.1285168699999986
  3.9830287000000002 17.7633704399999992 23.9669028799999992
 11.7366725600000006  8.2557723200000002  4.7653778899999999
 16.7062711899999989  7.2998287199999998 13.2212806000000000
 10.0629980400000001  3.8080137199999999  1.2866605099999999
 24.9031566200000007 22.3533113199999995 17.1034256800000009
  7.2753608700000001  1.9901863200000001 24.0614670699999991
  1.0770012400000000  1.1598352100000000 18.3504003800000000
 15.1791322500000003 15.6756668500000007 10.9328168600000009
 22.8529856199999983 15.1292834400000000  2.8667508200000000
  6.4809849899999996  0.9146684100000000 22.8319441500000018
 11.4853968099999992 10.0641560800000001 23.2712157799999986
 19.3235490399999996 20.8887903900000005  2.9001384500000000
 17.6269650700000007  6.4018605400000004 21.0701347199999987
  0.7542289700000000  1.3262661600000001 15.5554280600000006
 15.0793579700000002 13.7694187400000008 22.6207800399999996
 12.4501848400000004  0.2566369700000000 13.2975838199999998
 17.4912779100000009  0.9078188300000000  7.7111394899999999
  1.1213731300000001 21.9181265699999983  2.9532075899999999
  9.5599203500000005 23.5813753000000013  7.1746239000000003
  8.9038980599999995 22.8146677699999998 21.1212275100000006
  9.4707035000000008 24.1137884000000007  5.4415901299999998
  6.8053708600000000  2.8679765499999998  2.0819454700000000
 16.2575082600000016 14.9412920299999996 18.2951523099999989
 11.6248342600000001  3.5894278900000001  2.5145796300000001
 12.5397670300000001  5.8644018700000000 13.0023053100000006
  4.7453332200000000  4.8155105899999997  9.2865332400000007
  3.7642020700000001 14.9442740100000009 18.4132644499999998
 21.7356560600000002 11.1714343399999994  8.2968844100000005
 20.7363451999999988 15.7538503799999994 24.9633888199999987
  9.6759787199999998 24.1743868000000006 23.9189143199999990
  5.1929277599999999  2.5369041700000001 12.7484315099999996
 12.8884462899999992 16.1168507100000014  0.9099544600000000
 18.6046298400000012 13.0138000199999997 22.9369104800000017
  0.6544882100000000 24.9833209799999985 19.6756928400000000
 14.3696221800000004 10.2400174600000007  3.9735257900000001
  8.0479137299999994 11.2860394300000006  9.4647757499999994
 24.4860643200000005 12.2829746600000007 14.9551586299999997
  1.3511240300000000  8.3414979099999993 20.5553482500000015
 23.7380356799999994 15.1655978200000003 13.2026356499999995
 21.6973251400000002 16.9436530900000015 21.9774349800000017
 24.7497279900000002 18.6783183599999987  1.4966251800000001
  3.7794023100000000 20.4145759700000013  7.7782807199999997
  4.5640768899999999  8.4402125500000000  4.6523017900000001
 16.2362633099999982  7.8774776900000001 21.7675837100000003
 22.7793988799999987  3.3569112799999998 19.6078576799999986
 24.2640629499999996  6.1060405400000004 24.2232965399999998
 20.9449784500000007 22.2527454200000001  1.8923498200000000
  4.7234806699999998 12.5396539899999997  3.9645507400000000
  7.2042335599999996  6.5533703799999996 17.4959861799999992
  5.0396514400000001  1.4217209300000000 19.8636879399999984
 24.0032446700000008 22.5331392199999989 14.4709447000000004
 13.1675737500000007  7.4120257100000000 23.9160816099999991
  7.5835582800000001  6.8640716599999996 14.4524546899999997
  2.4059295700000001 11.4582250099999996  3.3876834200000001
 11.7952738799999999 18.1681466600000014  2.0409252000000002
  1.8299009700000000  5.1455346700000000  6.0011290600000002
 10.9761514400000006  1.1772568100000000 11.1552229300000008
 10.8318172700000002  0.3528207500000000  4.8584161000000003
  5.3993921399999998 22.5837017499999995 14.2753368999999992
  0.5872926600000000 20.6276712499999988 14.2706199599999994
 21.3096939200000008  2.0257856400000001 22.3791792600000008
  1.8658687500000000  9.6560571999999993 14.3533095599999996
 11.0736933000000004 15.5633037200000004 22.4455673000000004
 17.6496158899999998 12.0942663100000001 18.3338863500000002
 12.6279033799999993 12.1720728600000001  1.0286210800000000
 13.0345051800000000 20.9285932300000006 21.8664859500000013
 10.0294009400000004 14.1415370899999999  1.8139168699999999
 11.5009096700000004 20.7888866999999991 23.8187466599999986
 21.6751585599999999 19.3898887100000010 10.8595734299999993
 16.8506041899999985  8.1046988500000001 15.6736170700000006
  1.4821176800000000  9.9518029200000004  9.9516461799999991
  7.3172902799999999  6.6978012900000001 19.9463504500000006
 13.3119450100000005  8.8598320800000003  7.1977140400000001
 21.9798962499999995 16.1161983699999993 14.9459937699999994
 22.3172200799999985 10.5179369999999999 24.9670989200000015
 22.0315975000000002 10.0591939600000000 14.8728379700000009
 17.7877613500000002  8.9050809500000003 17.6956022799999992
  9.9875581800000006 10.8904094400000009 10.1114069400000002
 17.4164263999999989 17.8784407899999991  7.9543153999999996
 13.1789702200000001 23.9524347099999986 18.5702057200000006
  9.4474959199999997  9.0639798799999998 13.3098898299999995
 24.3183470100000001 18.4581888800000016  1.7805215200000000
  0.2252075200000000 10.0628560900000004  1.4223407100000001
 16.3302815099999989 13.0413884099999997 11.6150487400000006
 14.1241476800000001  9.5500920899999997  8.3978300499999996
 17.3296295299999983  9.0835166300000001 16.6640381499999997
 22.4892253300000000  1.4100831700000001 24.2678500499999998
 19.7557494700000014  9.8813731699999998  1.2389270500000000
 22.6468925600000013  1.3232327100000001 14.5721107900000000