Na Cl 
 1.0000000000000000
    25.0000000000000000    0.0000000000000000    0.0000000000000000
     0.0000000000000000   25.0000000000000000    0.0000000000000000
     0.0000000000000000    0.0000000000000000   25.0000000000000000
 24000 24000
Cartesian
  4.5872380899999996 22.7105146799999993 20.6203030399999996
 15.4331965300000000 10.7341257900000002  8.4521614100000004
  5.4767413300000003 22.5915722499999987 21.5548691900000016
 22.6864861200000014 16.7722142000000005 15.6041104199999996
  8.2838059899999994  0.9272860900000000  9.8973978599999999
 20.5658157800000012 24.6658162999999995  8.3745998400000001
  1.8994594700000000 24.2153125699999983 11.7583556300000005
 22.6830261700000015  8.6209209900000001 16.8190937699999985
  3.5089655099999999  0.1833217800000000  6.0891588900000002
 15.4935404600000002 24.9345348300000005 24.7269427800000017
 10.7272224200000004 17.4272154300000004 24.2097424100000005
 18.1406961600000010 15.6803705499999992 14.9877553900000002
 24.2047985499999996 10.0493076899999991 23.7143227699999990
 16.6228090500000008  4.5516870799999998  0.2047883000000000
 16.8769553799999983  0.9891522800000000 24.6824036699999994
 12.1584818600000002 22.6046860100000018 16.9577540700000000
  8.9726140099999991  2.7236088000000001  0.6930325300000000
 22.7977315999999988 11.4750035900000000 10.3852683300000006
 20.2047567100000016  6.3460144900000000  7.4656046500000004
 24.4173459599999987  7.3335321799999997  4.6752999700000002
  2.7665535700000001 22.4658500200000013  8.5412164500000003
  2.2248605700000001 18.2316709699999997 19.6940666700000016
 23.1785872399999988 12.5156764500000008  0.9740363100000000
 20.6282832300000010 24.5562301000000005 16.5593163799999985
 12.4303474000000005 16.8488063600000011  2.8884567600000000
 21.2927092299999998 16.5640540399999985 17.0562195699999997
 13.8822643400000008 19.2167351300000000  0.6674050000000000
 17.0758473200000012 18.7658808700000002 23.1598613299999982
 22.7893892499999993 21.2652069799999985  4.3337941000000004
 13.0773665799999996 16.3000992999999994  5.7690037700000003
  9.6463189000000007  0.6818188500000000  9.3293681900000003
 23.6911703699999983  2.5004252899999999 24.6478817399999990
  6.9484445600000004  7.5078006400000001  8.6053616799999997
  5.3136828100000004  7.0670673400000004  1.2008233100000001
  7.2374012099999998 14.0021736200000007  9.5320594799999991
  5.3236370700000002 24.3682324500000007  6.8828445199999999
  4.9678355600000002 19.4122484300000018 11.6593244499999997
  8.2660981299999996  3.3112030400000001  1.3894518300000001
  2.5168424800000002  0.5716171200000000  7.1689941800000003
 14.2852459599999992 17.1289086300000015 10.5673531599999997
  5.5045352799999998 14.7244655600000005 24.0926597600000001
  0.3326071800000000 15.1288357199999997 20.3418924300000015
 11.1861300400000001  5.2875109399999998 17.1963530599999999
 19.1058059399999998 11.2804812800000001 16.0488409499999989
  7.8698980799999996 19.3769886400000004 19.0480137399999983
 14.9670105000000007  0.5455265100000000 18.6639813299999986
 10.5342595800000005 24.3007117299999997 22.0620411300000008
 21.7253022999999992 12.1558313800000004  3.0579704799999998
 20.3098666799999990 22.9293451499999996 23.5039670100000002
  6.1735871400000004  9.4790504000000002 14.4000877599999999
 22.2749434599999994 24.9747854400000016  1.2189312999999999
 11.5782920600000008 21.3545816700000017  6.4541288600000000
 24.5436914699999988  5.8225845100000004 10.1779104399999998
 10.1407217999999997 10.1112199999999994 14.2745304599999994
 12.0333907100000008 20.1977202100000000 13.0835095500000005
 19.5449756000000008 17.4048543100000010 23.3863166199999988
  3.8233931000000001  9.7677667199999991 16.8552715599999985
 11.5491805799999998  7.0779548400000003  9.1870107099999991
  6.0890848399999999 14.2489520899999995  7.1377753700000000
 14.5905807099999993 23.8899932899999996 19.1172859600000002
  4.2251365900000000 11.8706026500000004  9.2187705599999994
 14.8768172199999995  9.6670215600000002 23.6314348599999988
 23.5257546600000005 22.3586435299999984  6.7218104500000004
 23.4682753400000017  6.3037102599999999 21.4583493999999995
  0.4783414400000000 14.4846205700000006 18.0178646200000010
  1.2506659099999999 19.9420308800000008 15.7129784899999994
 13.0294584400000009 11.1079684699999994 16.6261479500000000
 10.6685156100000000  5.7417771300000000  2.0482912700000000
  0.6313231000000000 10.6472773400000005 23.7902711999999994
 18.0879825200000006  4.7222612100000001 17.0441538299999991
 11.0934061199999991 21.8766022599999985  5.0541425499999999
 19.9738321200000009  0.1964750900000000  2.1568938400000000
  0.9147711100000000 24.5580498899999995 22.1445717799999997
  8.8179661899999999  3.5578114900000002 21.1377603000000001
 12.3373350500000001  3.5902445599999999 16.2402703700000011
  0.2241678100000000 17.5883344699999995  7.1374193600000000
  8.6071257499999998  9.9625131400000004 14.9583347999999994
  4.7330278100000003 22.9984201100000014  9.4468430800000007
 23.0916058399999997  0.6193578100000000  9.5467626299999999
  2.4394855000000000  0.4328506000000000 24.9199552000000004
  4.6870387899999999  0.0609092500000000 23.7018169800000003
  6.4380318799999996  4.0017589100000004  7.5620515399999997
 20.4002725299999987 17.3803920000000005 12.2483561299999995
  8.1215410299999995 23.7400883600000014 24.6650161600000004
 19.9265495399999999  5.5180930699999999 17.5901848399999992
 13.2366715599999996 18.7389808400000000 21.0510534299999996
  5.0550524200000000 10.2659706800000006 15.1691727299999997
 23.2860637699999984 18.8737896399999983 11.7824104700000003
  1.9727178999999999  5.4697030800000004  4.2997184199999996
 15.3675346000000008  7.1540362399999999 12.8870039300000006
 16.8750632500000002 19.1880704100000017 18.8993968400000014
 17.1626737300000016  3.0573881599999999 10.5227962700000006
  6.6368274200000004 20.1584290700000004  2.7173635699999998
 20.7294855499999997  0.4636048200000000 16.8062518400000016
 12.6747236900000004 24.0810224700000006  4.7445956499999999
 17.4191286599999984 13.2954485800000004  6.6042443100000003
 22.5340671599999993  5.0667463799999997  6.8064513399999997
 21.0276968099999984 12.5002187599999992 16.1767304500000009
  7.3086473099999996 11.4353007000000009 18.0988509899999990
 12.3885457700000003 14.2887471099999992  0.9726398600000000
 22.1581757800000005 12.4602569699999997 19.5388517999999998
 14.4822287700000008  2.8188928700000000  2.1325367599999998
 16.5453744200000017  3.1078734799999999  9.0295764399999996
 10.0912721899999998  4.0116546700000004 23.8800290199999985
  1.6476582500000001 17.1922256000000004 24.7356080600000006
  6.3646060999999996 19.9347669500000002 18.6280748000000003
  7.0531002599999999 16.4561167700000013  2.9545009699999998
  6.2978566300000001 23.0763876500000009 19.8471536600000000
 21.1115687399999992 22.1357610099999995 10.7352334400000000
  2.0683546399999999 12.8365080700000007 18.1912114699999989
 14.6911688999999992 14.4757565800000005 19.0407735199999983
 18.2804690100000009 14.8425848200000008  9.3230293500000005
 17.1543275100000017 12.7824370300000005  9.4192357399999995
  9.0951300199999991 11.8501656200000003 15.7335112299999995
  8.1232323100000006  2.1654615100000001 19.9115521400000013
  3.4567619000000001 22.7972390400000009  3.1964658400000001
 23.0014151899999995  9.7850718600000004  7.7027191699999999
  9.6010509899999992 14.8640277600000008 19.7146158999999983
 18.5494145800000005 10.0108697499999995  2.6878462100000000
 24.6311996099999995  1.5718963900000000 18.8626869699999986
  0.1798534900000000 22.7975780099999987  8.8936713399999991
  0.9342940100000000  2.6793637299999999  7.0662528399999998
 12.5115251799999996  6.2037152999999998 15.8429892300000006
 23.1200588700000011  3.8294985100000001 12.3814463299999993
 19.9685083600000013 10.7199432600000009 20.0863894599999995
 16.9477119499999986 15.1948086799999995  4.1494096799999998
 14.1284330300000001  6.5740161400000003 14.4892198699999994
 20.3183268199999993 15.1188218600000006  2.0389520600000002
 18.6672265000000017 15.0758356300000003  4.5693920500000003
 22.7721522100000016  6.5621702300000004 15.3949949099999994
 18.6795316299999996 21.8880346299999999 22.1979646200000005
  6.1914220699999998  9.2307539700000003 16.2819733599999985
  1.1262107299999999  3.2237332300000001  6.2844457900000004
 22.6804748399999987 15.7406351400000002  2.8547467700000002
  4.7289250300000001  4.0430197999999997  1.0337394900000001
 24.0596081700000006 19.8345264700000001  8.8864570999999994
  4.6844639099999998  6.7850004300000002 10.5022793500000002
 11.8089544400000008 23.0972882000000013 21.1227809499999992
 10.5794713500000004  9.1750340000000001  4.7964327600000001
 13.6454674800000006 14.3719835499999995 24.9275359799999983
  7.0971997800000004  7.6367647400000003  1.1050232499999999
 22.1256928600000009 16.5199340600000006  0.5317983200000000
 12.9343978800000006 13.4251214900000004 11.0168138500000001
  9.5902993300000006  9.1607922700000000 15.4357336299999996
  3.3751204000000001  0.6486359300000000  1.6240557000000000
 20.5040906800000009 12.2520047200000004 19.4432964300000002
  8.4830818000000008  0.1558778500000000 19.8389560399999993
  8.3342077000000003 23.0288416699999985 20.7419815199999995
 10.4834412599999993 20.1972948899999984  5.9352951899999997
  4.5061750399999996 10.2838274700000003 15.2883243400000008
  0.8671026900000000 23.3949339599999995 23.6550520599999992
 20.4600289000000011 21.7056839699999991  7.4305031599999998
  9.4666094800000007  5.3055238200000003 19.9389036399999995
 13.1534304500000001 19.7056253800000007 17.4457032900000009
  9.9351896400000008  5.7322267000000000 16.5341535800000017
 14.5191796400000008 23.8522505299999992  9.7746004000000006
  6.7090013800000001  8.1861838700000007 10.1923644499999995
  3.0692670199999998 10.1707368400000000 14.5741337400000006
 22.4657616000000004  7.0551845899999996  1.4873368899999999
 22.6711191899999989  8.5002677099999993 13.9993835999999998
 12.6401724000000009 18.3775325900000013 21.1901678599999990
 18.1511718699999989 16.7456996099999991 19.9733840200000010
 17.6651599499999996 23.3433636699999987  6.9132228299999996
 15.5360999599999996 15.2320100499999995  4.3929626700000002
  7.5236282900000004 24.6207179200000006  0.4059984800000000
 23.6164807000000003 22.1911018800000015 15.8493268100000009
  4.6357705400000002 13.3954587800000002 12.4757224099999995
  4.4664667099999997 17.9060372699999988 21.7684368200000016
 12.1176986800000002 12.1616789700000005  1.3383850900000001
 19.2382533100000011 12.3233414999999997 18.4006089199999998
  9.0341141999999994 11.3572840300000006  6.8726627899999997
  8.8434890700000004  7.5207192799999998  0.7289978300000000
  2.2665787100000001 19.3884622200000010 11.8844694999999998
 17.2788511199999988  5.6508196399999999 23.3257360700000014
 10.6462101699999998  5.8543851000000000 19.6504501299999994
 15.1152537999999996 17.0705715600000012  5.0962477100000001
  2.6353145100000002 16.7310484099999996 23.7305670699999993
 14.6408091799999998 18.0799438499999994 19.6162356600000010
 15.0727724599999995  3.0867524199999998  4.0479676500000004
  9.1922390800000002 18.9621892699999997 22.5151106399999996
 11.4644498200000005  8.0080441100000002 16.1973905800000004
  4.5435201500000000 12.9431849999999997 11.1102746900000007
  5.3866330199999997  8.1411840400000006  3.8802141500000000
 14.7591487499999996  7.0129687299999999 16.9655265200000009
 14.6043042500000002  4.5415087200000004  4.1369873200000002
  5.3459455699999996 24.3072785200000006  7.4300874099999996
  2.4790313500000001 15.0798249000000002 21.6171148600000009
 18.8493959000000011  1.7968828600000000  0.2101699100000000
  7.3257179399999997 23.3413887399999993 23.7206125000000014
 22.3343612699999987 23.6099156400000005 11.8522088300000004
  0.0738586100000000 16.3416021899999997  3.3080558199999999
 23.4941525499999990 16.2218980799999990 16.4410297700000001
 24.3873763600000011  3.6344720800000001  9.5721916000000000
  4.8242059299999998  5.4291090600000000 22.0359782300000013
  8.6861540799999997 13.1916842100000000 12.6365772399999994
  7.9536574000000000  2.1199191300000000  4.4808990099999999
 10.4696780300000007 13.8785814900000002  7.3191546199999999
 13.0316489200000003 22.9234051299999990 23.6700181000000001
 21.9942540999999991  7.4285983399999997  2.4522590499999999
 15.1177900899999997  9.6980656900000000 20.3900376899999998
 20.3634480899999986 23.4720892600000006 20.4042180699999989
  8.6930230799999997  3.6388484800000001  8.1263664900000006
  4.8416224400000001 23.1484285300000003  5.6383277900000000
 13.3751630000000006 21.3645921899999998 24.7009150300000009
 23.2789650799999990 24.5660730799999989  6.9901748899999996
  8.8694471000000004 18.7973691500000015  2.3832551600000000
  5.3694136300000004 18.7349623399999992  3.5120302900000002
  1.6931580399999999  6.9071572500000000 13.5919662399999996
 15.1765489099999993 22.2575137699999992  7.0339797199999996
 20.0971772900000012 23.2586650199999987  8.3829402599999998
 17.0769723000000013 12.6734107100000006  2.0137917000000001
 20.7971471799999996 12.6526675500000003  3.3834772200000001
 16.1016369499999996 20.2122964799999991  8.0668680199999994
  4.8507694299999997  1.8817998899999999  2.4108239999999999
 18.7190400399999994 10.9059644999999996 21.5454022700000003
 13.5760077599999995 21.9623742300000018 21.6236192799999998
  3.1692956699999999 16.3523348199999994  8.6913884699999997
  1.1659444699999999 21.0286475400000015  3.4791212200000001
 23.5903376499999986  7.8048398499999996  0.9433955100000000
  5.6482944799999997  5.8852921699999996 14.1055568200000003
 22.0934519899999984 24.6475622399999992  1.5785769599999999
  6.1429109100000003 18.9036706099999989 13.9919168400000000
 12.1462979200000003 17.8291039500000004  3.7501010500000000
  2.9483123500000001  2.2856048300000000 14.1604096699999999
 19.0053147200000012 22.3245593900000010  8.8697342100000007
 23.6229127699999992  5.2949795300000000 17.7209460400000012
 10.9400530400000005 19.4714376999999992  6.4534682800000001
 13.4413996999999998  9.6047693200000008  2.3579776200000002
  5.5298284899999999 14.8274080300000008  4.2467850900000004
  0.7169442499999999 24.6819887300000005  5.1845998800000004
 12.5701163400000002 15.9452791299999994 17.3063103200000015
 17.1575317500000004 16.6360752299999994  2.5163382799999998
 17.0974201500000014  6.3404374700000004 13.7325062399999993
  2.2323152199999998 18.5218641999999996 21.9715588799999999
  0.9901439200000000 16.3488526699999994  0.1667774400000000
  3.0284333900000000 23.8799383499999998  0.1238641600000000
  6.7848741199999996  8.3793766800000000  7.1839206100000004
 15.1536428000000001 12.2744967200000001 22.4663232999999991
 16.4957425099999995 18.9442845800000015 21.5910169500000002
  5.2219003700000002 14.4795120300000004  7.1586806599999999
 15.9458413100000005  1.7548902700000000 19.4407122900000005
 15.0514282399999999 19.3543561599999983 13.6639669300000008
  0.2921117100000000  9.5215465800000008  3.6333724200000002
 16.0902205900000013  3.3375058499999999 18.4607454900000008
 19.7494410100000017  3.8550052500000000 16.0731704300000011
  2.2071347499999998 20.3136857199999987 12.1159430199999996
  7.6543102699999999 20.9926383200000011 23.2722474800000008
 11.6634571200000003  2.7237556900000000  3.1618607100000000
 16.3930013599999995 17.1738900100000009 16.5693835800000002
  6.6297983800000004  2.0213416899999999 22.6897895100000007
 22.2922820699999988 16.3847533399999996  3.5493245000000000
  3.4968977500000000 22.3604188499999985 11.5596475900000009
  7.9971264599999996  7.7044457700000004 13.6200542500000008
 12.2517943999999996 15.9085167500000004 24.4410669399999989
  6.0121084600000003 20.5068728200000017  9.0114304999999995
  5.1123365900000000 23.0410682499999986  1.2340676900000001
 15.9755987899999994  1.8888435100000001 20.7928767400000005
 15.8793829800000008  9.7897526900000003 11.3733829600000007
  2.4474661000000002  9.5627322400000008 20.8407104099999998
 19.8198817100000007 12.7518397100000005 20.1700342200000016
 22.7651599599999983 14.0433660200000006  1.8526841700000001
 13.0627815599999995 21.1696050900000010 22.5527928399999986
 19.7893160500000000 24.0348313000000005  3.4096579000000000
  6.1202696200000002 13.3715097499999995  9.9643774399999998
 21.2915954499999991 22.8447483799999986  1.6860940400000000
 13.1825051999999996  8.3649473299999997 14.6697816400000001
  5.0200081299999999 21.2767036599999990 22.5584377600000003
 14.6634990999999992 24.4293733099999990  9.4773019099999996
 10.0132451400000004 17.6111341000000010 15.3307414200000007
 13.7710785300000005  0.5168949700000000 12.4537976399999994
 10.9769358900000000 14.3615584700000003 24.7131289099999982
  3.5575870200000002 17.3650589999999987  4.5465606400000000
 14.0446804400000005 23.9441766700000009  4.7773732700000000
 18.3125650100000001  4.2801731600000004 11.8703593800000000
  5.1300796000000002 21.2478465300000003 12.5565738200000006
 13.3362647600000006 17.6017496099999988  7.6057260800000002
  4.4381845999999996 17.5685654100000015 24.8788910700000017
 14.5221875100000002 24.4055087999999998  8.3864429699999992
  0.9469218700000001 14.9158236100000003 15.2473427400000006
 12.0894753700000006 12.8124818800000000 14.3830371199999991
 10.7048023200000006 15.6125799700000005  0.6315710100000000
 14.8140363300000004  4.5086786200000004  2.3615191599999998
 15.0524972500000001 12.3213520699999997  9.9642071899999998
 18.4302748500000000  7.6294032400000003  2.3802995299999998
  5.6942739900000001  3.6629494399999998 13.1912600900000001
  5.5083201199999996  3.3362166000000002 21.7924639000000013
 15.9407431299999995 16.0698430200000004 10.8516738700000008
  9.0827064600000007  3.0475252600000000 19.7569691399999989
  5.3803951999999997  3.3020763299999998 22.9969188399999993
  9.2150198999999997  1.8395216800000000 16.8408671400000003
 19.4539480199999986 12.5044305399999995 11.9640881500000003
  5.4295105100000001  3.7830911700000001  7.4133123100000002
 20.5399485499999983 14.9153084400000004  6.5890304300000002
 16.8344525800000007 11.6445375200000001  9.7420901999999998
 10.3100532400000002  6.0647451999999999  5.1726529299999999
 11.7777649100000001 23.8949015699999983  1.6107398200000000
 21.7041702200000017  6.9889332900000003 13.0018030800000002
 21.3043983200000007 13.0225534799999991 20.0564128400000001
 13.1306693400000007 12.1595440499999992 15.4568299499999995
  7.9409533300000001 13.6026739299999999 20.1407794799999991
  6.0807506199999999 24.1757256299999987 21.4207042299999983
 17.7760628800000013 12.2888801700000005 14.2089779200000006
 10.2919109599999992  1.1474422700000000 10.0621481399999997
 14.5237158700000002  0.0926310100000000  6.8493523600000001
 17.0650312399999997 11.9800628600000003 23.9164341600000014
 13.5089024500000008 19.1234748600000017  8.2418885500000005
 21.4208088100000005 19.5336697599999987  2.3876524200000002
  4.2742098700000000 11.6452876599999993 22.3497841000000008
  7.8214177700000000  4.5684022400000002  6.1364217099999996
  9.8396931100000007  0.7221371500000000 11.9591151399999998
 21.8481913200000015  2.5515056299999999  8.1551965600000003
 14.3885786699999993  3.8417270499999998 17.9065989099999996
  6.2078207900000004  9.8439781499999999 22.7407783999999999
  4.2624979600000001 14.8032961200000006 23.9979718099999992
  8.9122252100000008 12.7691290800000008 10.7523635700000000
 14.9744570199999991  0.6991495800000000  0.6070704400000000
  3.0329439599999999 24.6890858900000012 24.4664894199999985
  8.2876510400000001 15.5509866799999994 15.4332089099999994
 10.9421115499999999  4.0688813100000001 10.6881786699999992
 11.2188281199999995  4.8442034200000004 16.5268627899999991
 16.9828900999999988  6.4339611899999998 10.5857910999999998
 15.3909957199999994  1.4651071499999999 24.0559034899999986
  7.5698892400000002  2.1284371000000002 22.6424107799999987
  0.9979504500000000 22.5532374799999999  2.2623247399999999
 22.8918397999999996 18.1515558199999987 23.1987367300000003
  1.1681527599999999  8.1434428099999998 16.8433878499999992
 11.8196501000000005  2.8592071300000002  4.6941943000000004
 20.3236385199999994  4.3926507299999997  2.2807435300000001
  7.4564408100000001 20.4006600300000009 23.8931051799999992
 21.4187594700000012 10.0904056299999993 14.4473684599999999
 16.9216286899999986  1.8134524599999999  3.6954759500000001
  9.8643268200000005 14.7407885000000007 23.4323380000000014
  2.3048366200000001 12.3890687699999997 23.0787380800000008
  9.3509481599999997 11.3856660699999992  8.8896734899999998
  8.7423703400000008  8.0183734999999992 14.8034787699999999
  2.0676694900000001  1.3211796600000001  5.0666270200000003
  4.8003572400000003  4.6041510099999998  6.9660071200000004
  2.6816651700000000 20.7465176299999996 11.7218651499999993
  9.3875998099999993  2.3899944999999998 18.6375210399999993
 15.8160878300000007 20.9881631900000016 23.0586866499999985
 22.3465095500000004  2.7859978200000000 24.2652900900000006
  1.7304801299999999  9.1795008199999995  4.8702929099999999
  5.0128966899999998  1.7547402400000001 16.9192517699999989
 11.8645332099999994  7.2096779700000004 23.0577144899999986
  6.0073984500000002 16.3456913300000011 22.0341435200000006
  2.8500635399999998  1.0179554300000000  8.7769957499999993
 14.9676257100000001 10.8853342499999997 24.8127866799999985
  3.5056775500000001 19.9225023899999982 12.4977482200000001
 24.6543196599999987 15.1505431500000007 10.1786610599999996
 22.7564377200000010 17.4488173800000013 12.2736427399999997
  8.1135447200000002 14.3460667500000003 14.3439111100000005
  3.1140825400000001 13.3852101900000005 15.2277049400000006
  7.0370049100000003 20.9415765000000000 15.0762265000000006
 11.1388464000000003 10.5915195799999999 11.6696207399999992
  6.3157314600000003 23.4986153999999985 16.2290384299999992
 11.4488150599999994 20.2347613399999986 10.6338132200000004
 22.4988260900000014 12.7700557200000002  1.3264470700000000
 18.5959725099999993 17.5100515899999998 16.4370915099999984
  8.1970323000000000 17.5219194700000003 15.9005254300000001
 15.1309831500000005  6.4337812500000000  7.5614863600000000
 10.9012124999999997 16.6784779400000005 15.1786749699999994
  7.9901722399999997 15.8248602700000003 18.4265900999999985
 20.6997346100000001  0.4396120700000000 13.5600108000000006
  3.1015457799999999  2.6799794600000002 17.4148652599999991
 16.6403421899999984 24.2311207300000007  2.4461783100000001
 12.9189080500000006  3.0876004799999999 18.3013513400000001
 15.8120054099999994  2.3749708699999998 16.1353696199999987
 12.1572248599999995  1.4781848300000000 18.8524403999999990
  2.9658807299999999 22.5574946400000016 23.8123621199999995
 14.3701575500000001 19.2379941999999993  7.9685539900000002
  2.4868413600000001 21.3427118200000017  6.9576285200000001
 11.8625857200000002 24.4782364600000015  5.7201421400000001
 13.4289143800000002 24.7639610800000014  7.8938383400000003
 21.7410022000000005  1.0240232100000000 10.7581090699999997
 11.5391358299999993 13.2559305199999997 17.4243085899999990
  0.3544149500000000  6.6519912600000000  0.0171002700000000
 12.4042364500000009  3.0019768299999998  4.2245732199999999
  2.4020654600000002 21.5142302500000007 14.6678926100000009
 23.2711672800000002 18.5084326899999994 21.2281552799999993
  6.6058318399999996 24.2157252400000012 18.6940840600000016
 16.4708786499999995  1.0574502299999999 22.5660043299999984
 16.8347601699999991 16.8142457299999997 22.0280481700000017
  0.4056291700000000 17.4093872400000009 24.5713255400000001
 20.2682939299999987 24.2161420499999984  0.6994671900000000
  5.9450456000000003 18.3813470000000017 10.2990890099999994
 21.7889678099999990  7.1819280100000000  6.6640217599999998
  2.2136979999999999  5.6222515900000003 18.1824821700000001
 17.9778551100000001  3.8107800799999998 22.7807723700000011
  1.4411787300000001 21.8908753599999990 19.9421433099999987
 17.6026553499999991 22.8284056100000008  2.0130124700000001
  7.7005008600000000 22.3179887699999995 23.4373160499999997
 10.9708762499999999 12.5172109500000008  1.7644665900000001
  5.3899961100000002 14.6645924500000007 17.8052970200000011
  3.6269726599999998  8.5294929699999997  5.1883837599999998
  1.1658233200000001 18.9926175700000002  8.9235357700000009
  2.8657686099999999 14.9730199699999993  1.5465827299999999
 18.4159712300000002 17.2283839699999994  7.4494635300000001
  3.1334735899999999 14.2906832300000008  8.5131179699999997
  4.9737174299999998 18.2688794799999989 20.0573631200000015
  4.1019410799999996 16.3238078100000017  4.2378333499999998
 10.0290595299999996  8.4034388100000008 11.5960950100000009
 20.5688093300000006 24.9784137199999989 12.1994570000000007
 11.2737224600000001  2.4533956600000000  9.2207834999999996
 23.7082549399999998 14.6407174399999995 16.5379534399999990
  3.3835267500000001 16.9341669800000005 12.5445102100000003
 10.5830165100000002 18.7585527899999995 24.9966796100000010
 19.1942696499999990 23.0900898599999991  0.1402213700000000
  6.7005731400000004 16.5328134599999998 16.9958672100000001
 24.5401980100000010 22.1079883700000011 18.9605921799999990
 20.6728163299999999 23.0240104899999984 14.5443787499999999
 22.3736794299999993  9.4301867000000001 18.1478558899999989
 11.0139284600000007 11.0955718300000008  8.2756760699999994
 14.2876834899999992  8.0964298400000008  1.6962779699999999
  9.3438312900000007 16.7725254499999998 20.8352556299999989
  3.1414008800000000 22.5246412599999992 21.6455754899999988
 22.1873020700000012  1.9859579999999999  2.9960776000000000
  5.0762142499999996 15.9329737599999994 10.4900024799999994
  5.4716203999999999 11.5240112099999994  9.0564352699999997
 11.5076420600000002  8.9401855399999999  7.6983841200000001
 11.7418576899999998 20.4021983599999999 24.7479073499999984
 13.0787798300000002 15.0525430300000007 13.0906841699999994
 15.1287816700000004 19.4334466200000016 17.9373713200000005
 23.3997371500000000  4.3822900400000000  3.1487233300000002
 20.5929282499999999  5.3450138599999999  8.6478875899999998
 20.0466811500000013 24.5701174100000017 24.9633658700000005
  9.2901387199999999 14.3614313399999993 22.5765300999999994
 18.7414239400000007 12.1120997500000005 18.0605455399999997
 18.5888669200000010 23.0863091099999984 11.5971467199999996
 13.2448599599999994  6.3613797700000001 15.7097675300000006
  9.0629248699999998 20.5782719800000002  9.0170851499999998
  0.1500907600000000 22.5753824600000002 24.4529455800000015
  5.6563315100000002 15.9637297700000005  2.4062349799999998
 16.5913449399999990  0.7344818200000000 19.4359685499999983
 10.3234219500000002  5.7527629100000004 11.6862338999999995
 10.5331943399999997  6.3973050699999998 19.5063295299999986
 17.8803820000000009 15.5802965899999997  8.0448473400000005
  9.7492021999999992  4.8414083000000003 19.5492769700000011
 14.6980054500000001  4.3776185600000002 24.6351738900000008
 18.3676101100000011  4.4231524499999999 14.9231914400000001
 14.0785050799999993 17.4348129900000011  1.9018483600000000
 14.3653695100000007 13.7653088799999992  3.5464189099999999
  4.6627014800000000 16.0237419400000007 11.0307472499999992
 18.7689637199999986 24.9731650599999995 23.9851228700000014
 17.9600008699999982  3.7346735000000000 18.6575682299999990
  2.7493064800000000  7.5939593399999996  6.6746380800000003
  5.6421992599999999  3.4430100499999998 16.6698803600000005
 20.6792453700000003  6.0770167400000004 11.4203750399999997
 17.2433676600000005  9.2803081200000008 24.1385585899999988
 21.7541503100000000 22.0042984799999992  1.2445572199999999
 17.2731753599999998 10.2583352899999998 11.8411742800000006
 14.6161037900000004  2.8564229499999998  7.9005281600000004
  9.1767752399999996  9.0613796799999999 19.6082265199999988
  5.4631343799999996 18.8995840299999998 20.3088741699999993
  6.2482217100000002 13.8623186700000005  8.9898606500000007
 17.5878687599999992 24.3102674599999986  7.6652037699999997
  4.0797858900000001 18.9613981600000017  9.2188918999999991
 16.9161733900000009 10.1261669699999999 15.4882658299999996
 11.2838806199999997 23.1815322100000003 12.0117878900000008
  7.1191454299999997  1.4773082200000001  4.1193002700000001
  8.0797012200000005 20.5384624900000006 14.9390162300000000
  5.0457291399999997  3.5697315700000001 21.4785302199999997
 14.6573367500000007 20.8587243999999998 22.5810199099999984
 19.2017110600000009 23.1578185300000001 13.4560856100000006
  6.4308464299999999  8.2359897600000007 22.2798848999999990
  8.0254767900000008  9.1884807300000002  5.7955629799999997
  6.0270071400000003 20.9090136999999991 17.7932899499999984
  1.8242369599999999  9.9506661300000001 15.8457178800000005
 18.9804304799999990  4.0951257200000004  1.7780456200000001
  8.6127934899999996  5.2201882800000003 10.7044958300000008
 10.4614593800000009  0.7478598900000000 19.2811006200000001
  7.4580998999999997 23.2850354000000017  1.5900357599999999
 23.7310751000000018 23.1791823900000011 22.5183633400000005
 16.1326173900000001 15.9004476500000003 13.8235881599999999
  8.0462719400000005  8.6924136799999996 18.3966746900000011
 17.9114682300000005 13.0465988599999996 24.1870336100000003
 11.4739074199999997 16.9619950899999985  5.2514677000000001
 11.4175673900000003 20.0550568499999997 15.3404777100000000
  2.4089158500000001 11.6487310700000002  5.2230455500000001
  8.7265106299999999 16.4641717400000012 13.3344494499999993
 12.0918230100000006  2.2693181700000000 15.4304055899999994
 13.8267816299999993 11.7189253400000002  9.9781654000000000
  3.0258890599999999  6.1174393499999997 15.8032287100000008
  4.8649326799999999 14.9235601500000001 20.2754242600000012
 19.0554647400000015 15.1959623900000000 23.5398264899999994
  8.8638918400000009  0.4301535000000000  4.5898201099999998
 16.1065582700000007  2.9248886800000000  8.6039696600000006
  6.9181215299999996 22.8685262700000003  1.3210526400000000