Na Cl 
 1.0000000000000000
    25.0000000000000000    0.0000000000000000    0.0000000000000000
     0.0000000000000000   25.0000000000000000    0.0000000000000000
     0.0000000000000000    0.0000000000000000   25.0000000000000000
 12000 12000
Cartesian
  7.1674457100000000 13.2600246100000003 11.2335514599999993
  2.2993249599999999 19.7545969399999990 15.5107179399999993
 13.6363833000000003 11.6941937399999993 19.3142155700000018
 14.0211538000000004  3.5319356000000002 11.2416819700000001
 13.9489061799999998 14.2662448400000006 22.7770415499999999
 13.7372865199999996  7.5744958300000000  4.5513819800000004
 20.0769511600000001  8.3181639799999996  3.3820500999999998
 17.1159674300000013 18.0645294099999987 10.5458038399999996
 18.3252103400000017 16.8101218800000005  2.7185046499999999
 14.9076120999999997  2.2365602400000002 14.8680246599999997
 11.8904955000000001 18.5579391200000003  3.2827333200000002
 22.8989314499999992 12.3408985500000004 13.4819266300000002
 15.7409253600000003  7.7325314100000000 10.6553852599999992
 10.0600778500000008  4.7284607799999998 21.2403253099999993
 11.1474054599999999  4.4435127799999998  7.1192520899999998
  3.2699381000000001  7.8496744700000001  4.4787499999999998
 24.3511795500000012 20.2747454800000000  7.6473575900000004
  4.1390754999999997 15.4419289000000006  7.4990936200000000
 12.2665396500000003 13.7318689700000007 16.5217332299999988
  5.7703455699999999  7.1980019200000003  1.8183533800000000
 11.0652731800000002 24.0463077900000002 21.2950284600000010
  5.5432861300000003 16.0100666099999991  6.1894567000000000
  1.1987798700000001 22.8933363099999987 18.3033543700000010
 24.4769371199999988  8.8822239900000000  8.5386585000000004
  9.2334402799999999 11.4307323400000005 16.3184510299999985
 14.2064119400000006 17.1654857900000017  0.3196581600000000
 22.4947246199999995 18.8367648999999986 14.5075949899999994
  4.1490100500000002  7.4118429399999997 20.8442316699999992
  4.0017120899999998  6.7751101100000000 19.2756747299999986
 16.2652452899999993 19.9775912300000016 13.3758192400000002
  7.3939030700000004 19.3288557899999986 10.0792684300000008
  2.2644861999999999  9.2194979900000007  2.1027799599999999
 16.4227694100000008 17.4855018300000005  3.8293388799999999
  9.6985669500000000  3.8147328800000002 14.2154948000000001
 19.8211661100000001  9.3387270600000001  5.9857354100000002
  2.2549713499999999 24.3034905799999983 18.7660953500000005
  1.7644913499999999  5.8061632899999998  9.1864769600000002
 22.1183047399999992 17.3477376899999989 13.4273423600000008
 23.3431167500000001  2.7632905299999999 17.6239370499999985
  5.5099161399999996  5.1605102599999997  7.6959904899999998
 21.5121674499999997  4.9982507500000004  5.6003612699999996
  0.2719070200000000 19.9412541899999987  2.6591815400000001
 17.8641697499999985 18.1009463199999985 22.6048595299999988
 19.8740549100000017 23.2409208499999984 10.1567917199999993
  5.1984405100000002 20.1895723099999991  1.1418090900000000
 15.3853852500000006  7.1698797699999997  4.1692393599999997
 22.4059546000000012  1.8789706200000000  4.8591740000000003
 18.1373950899999983 10.1992388700000003 18.6076084799999997
 13.0757579600000007 14.2641023600000008 11.7683078999999999
 14.9509292200000008  5.2673425900000002  3.2269087900000000
  9.6559796400000000 13.0498277500000004  3.4550780600000000
 19.4968921299999991  9.2660954499999999 10.2662248900000002
 19.4417833699999996  8.0530558299999999 22.7093089600000013
  0.3556807800000000  2.9268021399999999 15.7634992500000006
 12.1318253200000008 24.5880909400000007  2.0443925900000002
 10.1062204300000005  5.2467169000000000  6.5709916100000001
 13.6559732300000007 15.9421134299999991 14.1004998399999995
 12.1008427600000008  3.8643297900000002 22.7907363899999993
 18.9065019300000010 11.5780028700000006 16.4942107000000000
 18.1992472499999991 24.7484752999999991 22.6244067499999986
 23.4042965500000015  6.0120323899999999 19.2284353999999986
 22.3137373100000005  1.9829560300000000  2.5420185499999999
 23.7058364099999999 23.9925120999999990 17.1507848699999990
  3.2413763000000002  2.8114895700000000  2.7052007499999999
 16.3090249900000011  5.7830887999999998 21.3734447799999998
 23.4864557500000011 11.8617971799999999 11.2252584100000004
 12.9181451999999997 15.2664423599999992  8.0968152100000008
  8.1731855099999997 16.7288538699999982 11.8470410099999999
 13.2181821799999994  7.9879022600000003  2.6732667200000000
  4.5938391999999997  8.6553643699999991 20.7090182300000016
  6.4694358300000001  6.8079929200000002 21.9370879000000016
 21.6363114199999984 16.4859901600000001  5.0366331799999999
  0.6939346199999999 12.9591697900000007  4.7666392300000000
 12.9055575999999999  3.7065721100000002 21.3575102799999996
  5.6753390799999996 10.4239920700000006 21.0346674100000008
  4.6550967999999999 13.2118925399999991  2.2779153100000000
  9.9225957900000008 19.0674831000000005 17.1884875400000006
 11.9100158000000000 21.6356209499999999  4.8812454799999996
 14.0928191999999992  8.0123168800000002 13.0098070000000003
  5.8261854000000000 20.6980499699999996 22.1257646799999996
 17.7269558600000003 11.9471746999999997 21.1652134099999998
 23.7417173800000008  2.0440037400000000  3.5708107800000000
 14.6167279499999996 13.3466926499999996 17.8633105599999986
  3.6605124000000000 22.2319565700000012  2.4940728600000002
 17.8825089000000013  1.3270425299999999  3.6037465499999999
 18.1681949600000010  2.8527153599999999 20.5869761199999992
  5.3075793500000001  4.4860628199999999 22.2578520200000014
 12.7188586899999994 15.8580397800000004  1.0745744300000000
 10.3725161600000000  5.8790475600000001  9.1523797800000004
 24.0468945000000005  6.1558624100000001 11.5794571200000007
 15.9357662399999995  7.4231736499999998 11.2795573400000002
  0.5201503900000000 17.1675538100000011 10.0769553599999995
 13.3887578299999994 24.8528991499999989  2.6759736300000001
  0.0887193600000000 16.1062852999999997 23.3370710199999998
  1.1525601400000001 21.0782507999999993 12.1611927499999997
 18.1664816299999998 24.0567636200000017 22.0261715600000016
 18.8653610500000006 20.1231702800000001 10.1228795500000004
 10.2366424299999998 22.2493710100000008 20.1785649800000009
 16.1417012200000016 18.5723676799999993 20.7835674600000004
  9.4183262699999997 18.8096438699999986  8.6845879000000004
 11.8688651600000004  5.0168259199999996 17.7932527299999990
  1.1987144000000001 21.7929487900000005 24.0903414399999996
 11.3686364999999991 22.6736755599999995  1.4650783500000000
 23.5718425499999995 21.9576925799999998 17.9392593399999996
  5.1317513100000003 24.3443165099999987  4.9275630899999996
 17.5528118699999993 10.1091014999999995  3.6688548299999999
 12.4431227900000003  6.5646600099999999  7.2408304100000001
 21.6367307999999987 23.5346139799999996 21.2570796199999990
 17.7372365199999997  9.7342333500000002  3.2598335700000001
 13.0227443399999991 23.2640502799999993 23.8931398100000010
 22.0008456800000012 18.2133987700000013 12.5932067100000005
  4.0251904999999999  1.3767349900000001 13.7849591000000000
  8.8076577700000005  5.3041055799999999 21.1025221000000016
 20.0889722199999987 10.3560820699999994  4.6714106400000004
 12.3985652599999998  7.6863865499999999 10.0987799299999992
  5.1942496499999997 24.7538142500000014 12.3560782200000006
 18.6066943900000012 22.7125951099999988  5.5859773199999996
  8.5208390499999993  9.7419634899999998  8.1803024999999998
 11.3441467500000002 11.0743506000000007  1.6106152400000000
 19.6104207899999992 17.3421602899999989 19.6879828600000018
 20.9278554999999997  9.4673647899999995 18.0000904199999994
  2.5197165600000000 23.8761638500000011 11.6858585099999992
  4.2239667599999997 17.2093934600000011 13.2758420000000008
  2.0765319099999999  0.2718567700000000 19.0967889500000005
  9.7318408900000009 13.0499048999999996  4.7517117799999999
 12.0199427500000002 19.1778501100000014 22.1268313100000000
 10.6538416300000005  9.1162507300000009 16.8261002899999994
 21.2676479299999990 20.3588391199999990 21.0090342399999983
 23.8385134500000007  3.8955332999999999 22.2281097500000016
 12.8406320600000008 12.5031029000000000 14.6505224100000007
  6.3301802299999999 16.3391139699999997 11.4884386599999999
 11.1885436499999997 20.8531480800000004  3.8598567099999999
 22.6118072400000010 11.6442668999999999  5.1937957099999998
 17.1244738400000003 11.0317515600000000 10.6484856200000007
 19.0977428300000014  0.7637670000000000 11.6320267699999995
 24.4739621999999990  8.8826813399999995 16.2253270699999987
 24.0720650899999988  4.1979261899999996  4.5455196400000002
 21.5486362999999983 17.9303379199999995  5.1894732200000000
 19.4763968399999996 14.8017573200000001 23.1353432699999999
 10.7144167100000001  2.2016694800000001  3.4589159299999999
  9.0000666400000000 14.1199690899999997 14.3205588600000002
 10.6328167499999999  5.7511785099999999 10.0572081600000001
  6.4974819200000002  3.1786695300000001 23.8987132899999999
 15.6742680300000004 12.4227949199999994 14.9142929500000001
 14.5216756700000005 15.8029593700000000  0.3381607000000000
  8.4668981399999996  3.1570666500000000 10.8191602200000005
 12.6258431899999994  2.5464543300000000 23.2578733799999995
 20.0779168599999984 24.5486842100000011 14.7355461000000005
 10.3232685400000008  3.1743655600000000  1.5619301400000001
  1.3597971900000001  4.1113428900000004 24.3399640899999987
  6.7764462099999996 16.7314847299999983  6.0638750699999999
 15.5482993300000008 20.2668405900000010 24.7898479300000005
 17.9742276600000004 17.8443418399999985  9.8533606200000001
  5.4319446899999999 19.6944581800000016  4.7586071900000002
  2.9110578100000000  1.1486717900000001  5.7266978699999997
 23.6110843800000012  6.4952217200000000 15.1914297299999994
 22.3595134000000009 21.3416638899999995 14.3449714799999999
 20.9357036399999998 16.3710357000000002 22.9970083099999982
 10.7186611000000003 23.5370686900000017 12.5133938600000008
 12.6105438200000002 20.4099183500000017  4.4977614299999997
 18.8764007199999995  5.6668194999999999 17.2352836700000012
 23.4125811800000001 20.2519461800000009 24.4595139900000014
 16.0515744200000015  3.8112726100000001  6.0587231299999997
  3.9596977500000001  0.6401610400000000  9.1866787399999996
  0.5096662000000000 15.9597848300000003 11.1035825300000006
 17.9115324800000018 14.1264421599999999 23.1133526600000003
 16.1182372799999989 24.2139472299999987 13.8110496400000002
 22.3113010000000003 11.0359790400000009  6.6997876200000004
  3.3305111599999999  0.9010485000000000 18.9221872100000006
  0.2004467100000000 18.9078015899999983  8.4213994700000008
 13.4609182799999996 12.6534935799999992 17.2666736500000013
  0.9840241199999999 13.4933382500000008  7.5358870199999997
  5.6532148800000002 13.5824272900000000  4.8555268800000002
  6.8402927499999997 14.8002780699999992 23.2735117100000011
  7.9112670200000004 14.6647855699999994 21.0510880100000008
  5.6361603300000001  1.9467403100000000 18.8643457099999985
  3.0583590900000002  1.8411674899999999 19.5019953299999997
 20.0354718200000015 11.1749305600000000 17.0578517900000008
 16.3150582100000001  7.1832898600000004  4.5526299799999999
 16.0520120900000016 11.1672770700000008 13.4257989000000002
  0.2488959700000000  8.1945648200000001  1.0509670600000001
 13.6033783100000001  6.9793369399999996  1.7159853800000000
 15.5663439500000003 23.5427582400000013  8.1377343999999994
 20.9020793500000011  1.2476947599999999 20.0058818199999990
 13.8557310200000003 23.2711930299999992 18.9412309100000016
 20.2678395999999985 16.5801492199999991 12.5680206099999996
  5.7223129600000000 24.9138825900000001  2.6247268899999998
 13.7848471499999992  6.9260029400000001  5.3313912600000002
  4.6929333599999996 24.1310045200000012 19.7930272500000015
 11.4090377099999998  1.6967118999999999 16.6368334900000008
 15.2604066599999992  6.6547430700000003 21.2668337500000000
  6.6748237899999996  8.7633553200000005 10.7129215400000000
  2.0723717399999999  5.3518564499999997 23.6512967100000004
  7.3438826900000000  3.6363140000000000 15.5293951999999997
  2.5452062299999998  2.2810515100000002 12.6328014399999997
 19.4937379200000009  6.2532049699999996 22.6160136399999985
  7.3412300400000001  9.0532058499999994  7.2307929499999997
  2.9371891699999999 15.3382962900000006 15.7457020799999992
 13.0148402900000004 15.4208237500000003  2.7847553399999998
  3.3829716300000001  7.6041565300000000  3.0588200300000001
  9.5882947600000001  0.4700335400000000 24.8537796299999982
 17.4742682800000004 15.0269851600000006  8.5396247299999999
  0.4727651700000000 20.7642400000000009  9.5817396099999996
 15.2976465000000008  7.5447541700000000  4.6833296300000002
 12.7211388700000008  4.1810308100000002 20.5848856699999985
 20.1734424700000012  5.0475305199999996  8.8454540700000006
 15.5466279400000005 17.1758490700000017 24.4953103699999986
 17.6814060899999994 21.3920822999999984 11.7272980600000007
  0.6984369400000000 13.6295949299999997 22.6019696600000017
 21.3039986100000007  6.3045937700000003 11.3075154500000004
 20.4122301800000017 18.3525542600000016  1.3794162800000001
  8.8493889600000006  6.6802308200000002 24.6394376400000006
 15.0283906199999997  7.1611724199999998  7.8249388800000004
 13.7476890500000000  7.4099109700000003 13.3736039099999999
 20.1609296100000002 19.7439881899999996 12.2095908299999998
  6.5931268799999998 10.6834142799999992  6.1437223599999999
  7.5417060200000003  3.4530904200000001 11.0906219299999993
  0.0827404600000000 15.6188345599999998  5.7524280200000000
  6.0577047899999998 11.8444064800000000 18.9397154599999986
 19.7977034799999991 15.0024160999999996 20.6074690899999986
 24.7329812800000006 12.2164484299999998 21.8487407500000010
 11.7858387199999992  9.5914266799999996  3.1082365900000002
 15.1323835300000002  4.9700215200000004  6.1517692999999998
 17.7866496199999986 15.2202113299999997  6.0917445800000003
  8.9512167100000006 18.0992020999999994 18.2896281899999984
 18.7810070600000003  2.3855749199999998 19.3576460600000004
 18.9572657400000004 14.7653431800000003 11.1228544899999999
 16.8154115900000001 16.6225375699999987 24.9889137999999988
 13.6743008300000000 23.9741156800000006  7.9622409100000002
 21.3829923800000010  8.9528525900000009 20.5934329600000012
 13.8278198400000001  4.1680112600000001  1.7652752899999999
 18.9818559399999991  3.0528159800000001  8.6782200799999991
  4.8448308200000003  2.0715257500000002 16.1333000899999988
  2.3746876200000000 11.3747848600000001  1.0091420700000000
 10.6508266500000008  8.4434446699999999  8.9745438499999999
 10.1584309200000007  7.7484342499999999  2.9345044800000002
 20.2167339400000010  7.6472755799999996  2.7606562100000001
 23.3489921900000006  1.5117220200000001  7.5120546299999997
  5.1021797500000003  2.3350411900000001 20.0373147899999999
 17.1497434899999988 10.7388754100000003 13.2789756000000008
  4.7429098900000000 14.0864979899999998  1.7717020900000000
  1.9970999599999999 15.2589844800000005  7.7522287199999997
 16.7080657099999996 12.4603079300000008 20.3954479199999987
 11.2931410400000001  3.8214071199999999  1.3894757799999999
  2.9195091799999999 18.1908170899999995  8.0628211200000006
 11.8345334199999996  3.0032734900000002  1.0174897400000000
  0.9500395200000000 17.3141484299999995 23.8927400500000005
 15.2821033300000000 21.3107225699999994 19.3142353299999989
 14.3531875200000005  9.0225975799999993 17.7974761000000008
 22.1807530399999990 16.9162920499999991 12.1205215200000005
  9.6051294200000008  8.4101089699999996 23.7013995999999985
 24.4230614499999987  3.3938014900000000 14.6216350800000008
 20.8207762400000007  9.7863185399999999  3.6556706100000000
 15.8559125800000000 15.3227413600000002  4.3140546600000000
  6.3165953799999999 13.0184869699999997  1.7104910300000000
 23.2228174000000003  5.8920123200000001  2.0510221500000001
 21.5292612800000001 17.2942876400000003 15.0924170199999992
  8.2529008899999994  6.5052458099999999  8.6663545699999993
 24.8293995000000010  7.7174663099999998  7.4562956600000003
 17.9611807299999988 23.5645409599999986 24.2398312800000006
 23.8442850899999996  0.8994670800000000 17.3432502299999989
 13.0065784000000004  1.5632280999999999 23.1746275399999995
 20.9651237500000001 10.8347844200000001  0.2216630400000000
  0.4906855400000000 21.9518866700000004 20.3593047799999987
  3.8354035000000000 11.6266566200000003  9.2177283299999999
 22.3600332000000002  5.0780442299999997 21.6894309999999990
  9.2667368999999997 21.0470485499999995 12.7449505799999994
  4.3843794899999997 13.2660335099999998 12.2252160399999994
 19.2059690799999991 19.7223347000000011 23.2793114299999999
  5.3871308700000000 16.5085510800000002  9.2179627100000001
  1.2992405100000000 11.3352613899999994 11.7382248100000002
  9.3443872700000004  1.1168190300000000 20.3774091599999991
  8.1158356400000002  2.8496512599999999 19.0886837500000013
 23.5078184999999991 20.9054872799999991  8.5247825299999995
  1.0199628800000000 17.5160823100000016 17.7954214899999990
 12.6490509299999996 17.5990020700000009 11.4277995400000005
 17.0268034800000017 19.4860180599999993  1.5055031400000001
  2.9912844900000000 24.5184171699999993  6.0373926300000003
 20.4579837200000014 12.3324658399999993 21.7534230800000010
  9.7816619500000002  0.3923693300000000 19.5513703300000010
 24.8810571399999994  0.9273267600000000 10.5808355499999998
  7.1031653800000001  7.9005769800000003  9.9973700500000007
  0.7984664900000000 19.8262586700000014 19.9294665600000016
  4.5444266999999998  3.1795606699999999 13.8762317999999993
 17.8278823099999997  8.2180126100000006 20.1380081599999983
  9.5030922699999998 18.4718151000000006  5.7963257700000002
 18.8471869699999992 14.6713263200000004  5.9814445799999998
  5.1390874699999998 22.6430900699999995 12.4148622700000004
  6.5901360300000000 10.4162098000000007 15.2380364299999993
  5.6783117599999997 10.3857724900000008  3.6781710500000000
 19.0207924000000013  7.4578121599999996 18.4489261800000008
 21.1022974000000012 16.3123577299999987 11.7964135900000002
 12.3231854199999997 15.7774055999999998 20.8559733099999995
  1.3434173100000000  3.8146953500000000 13.5846894400000000
 17.8754417699999983  7.5497581399999998 13.7851023799999997
 11.2156359299999995  1.1930725300000000  1.9700284600000000
 10.2683117700000004  4.5158528599999999 22.9390641299999984
 11.8508590599999994  2.3881490099999998 12.6204457100000003
 11.8310082399999992 18.7555059399999990 23.7883542299999995
 10.8695595100000002  9.6867016400000008  4.3945396499999996
  9.0278234499999996  5.6287094499999997  1.7197450200000000
  3.7544927600000002  1.7597791300000001  1.6078065500000001
 22.4046963000000012  5.7307512599999999 16.7364982399999995
 15.3258927200000006  7.2790086199999999 13.2978542500000003
 22.0364418600000000 16.4782829799999995  0.5020042500000000
 12.1854876700000005  1.4912536800000000 13.5006676300000006
  5.7207869200000001 24.2656965699999994  8.5623135099999992
  6.8032156900000000 16.6461700099999987 22.1793059700000015
 17.5954582600000009  1.8669772200000001  3.2861422400000002
  5.1926502499999998 22.8727794099999997 22.8035875899999994
  9.8966841599999995  8.5707309299999999 23.2748186799999992
  4.8775376200000000  1.7747670000000000  3.5088928099999999
 23.9614298800000007 19.7519850400000010 21.6126127600000011
 18.1826882800000007 21.4420017999999999  0.7242569500000000
 22.5865089400000016 11.4558213400000000 12.9893349199999992
 11.7519917800000009 15.7259072799999995  5.3237094500000000
  0.5846459000000001  1.1435666700000000 19.9250377199999988
  5.1090026300000000 17.0071992399999985 14.9976331700000003
 15.2206781699999993 13.9380710800000003  7.1607196399999999
  0.2149687300000000 12.9793880500000007 19.5748746300000001
 19.9178281400000010  8.9376318900000005 14.7791620800000008
 18.3770146799999985 12.4856799699999996 21.8231990499999995
  7.5063542999999999  9.2966587599999997 23.9437101400000003
 21.9363295700000016  8.8910690799999994  7.1979990100000002
  1.7694385699999999 13.9540972799999992  1.5130440700000001
  4.7317039400000001  0.7480523100000001 22.5151520599999984
 12.1606053599999999  8.2942994500000005  2.2907998300000001
  1.4727547400000001  2.5889528099999999 12.5298985700000003
 15.0052453000000003 18.1577494799999997  2.2955133100000000
  5.6922426799999997 19.5227614600000017 19.0518219699999989
  3.9718409399999999  4.7307401300000000  9.5494245299999996
 22.1781427399999984 23.0449921899999985 17.1837508899999989
  7.3011659900000003 10.6968521800000005  6.9945428800000000
  7.2821603699999997 16.2692649699999983 12.5363759500000000
 23.8706286799999994 18.6561550300000007  3.9976453900000002
 13.4260577600000008  1.7527075400000001  7.7555846800000001
 23.1117306599999992 13.8572322200000002 23.5018422499999993
 20.4626468499999987 15.7055319499999992 12.8754440399999996
 22.5879899600000016 11.3471974600000003 12.3476348500000004
  1.6989669800000000  4.5379832200000001 19.8839369800000014
 14.3288030699999993 24.1932060299999989 15.2138015699999993
 23.3629456799999993 11.0280942500000005 24.1799857899999999
 18.0212217000000017  7.6731141599999999 12.0296467000000007
  7.2721460899999997 22.9592808599999998  1.6334630900000000
  3.6141633899999999 18.2440752900000014  3.1734779799999999
 11.6444790099999995  8.7587069100000008  7.5869730500000001
 14.2560114000000002  0.7835767500000000 19.5743840700000007
 11.6731394500000007 15.4547124700000005 22.3524957200000003
  3.3955399200000000 18.8394281200000009  9.2683617199999997
 23.3554031500000008  9.2606738300000000 19.1449815600000015
 19.7051006999999991  8.6275373900000005  3.0208440300000001
 21.3255765000000004 18.9642621300000016  7.3536064200000002
 17.0630350100000001  3.4293961400000001 12.8608879199999997
  2.9433176200000002 18.3391855200000009  1.6910072500000000
 20.7589185799999996 20.1445352799999995 19.2045275400000008
 20.4944390399999996  0.0370013300000000 21.8813447600000011
  9.7614089499999999 10.0002867900000005 24.8201043000000006
  1.4929616100000001 17.2058334799999990  3.4432490100000002
 20.6861774099999991 22.5836757400000003 13.8382341800000006
  4.2018248600000003 20.0704266500000017 23.6607520399999984
 16.2594844499999986 23.1552292100000017 19.9373636800000007
 12.2714316500000002 20.9517912200000005 11.7550712599999994
 17.4826654899999987  6.1589237199999998 13.0309869200000001
 11.7972429299999995  1.2619490700000000  9.5780885799999993
  3.9348026599999999  7.2283729699999997 12.2645264199999993
  4.8955397700000001  4.3369197699999997 15.6105006199999998
 15.6838973799999994 24.2633065399999985 18.3930819700000008
  7.5286814900000003  9.5497378899999994  2.4447022700000001
 13.1110784299999992  7.8951889800000004 19.4411905800000007
 23.0900877599999994  0.1050027100000000 14.7805265000000006
 16.3088635900000014  3.0702735500000000  2.0876296600000002
 11.7916498999999995  7.2598192199999998 15.7815904200000006
 16.1901842299999998  8.4263470199999997 21.6143307299999989
 22.0565123900000017  3.8037983799999999  5.4394310800000003
 20.5182141300000005 24.6248060600000009 19.1154551400000017
 23.4545918899999997  1.3258495699999999  8.5537624599999997
 13.0856403900000000  5.3580500100000004  2.7465080300000002
 10.5604149799999991 13.8945682000000001  1.0078029399999999
 13.1439495900000001 10.3607472499999993  8.0791084200000007
  5.4855397200000002 20.4661235899999987 24.1391614300000015
  6.8861679599999999 10.8248286199999999  7.8946709100000003
 10.7339634600000000  5.7238890800000002  1.4037946200000000
 18.5762550699999984 11.1188806800000002  0.0275242400000000
 12.5998602300000009 15.8508980499999996  6.0435056899999999
 23.2002114500000012  0.9538728900000000  6.7416028199999998
  6.1185134100000003  8.8549450699999994  0.0617296000000000
 12.4893360500000004  8.2709589900000005 10.0077368500000006
  0.0332077800000000  8.1232406099999999  2.3049665400000001
 14.5726257900000000 22.1216300299999986 23.2358405700000006
 24.7724727099999988  0.9489114900000000 23.3553558800000012
  8.4662973499999996 18.0594850300000012  0.7648979100000000
  5.6391471600000003  2.1462466899999999 21.9681642000000004
 18.9357163600000007  2.5848442800000000 18.4778425900000016
  7.1004581399999998 12.4000226999999992  7.1815527200000000
  0.3565551100000000 17.6217887200000014 19.4029615600000014
  5.5749117699999999 22.5420437000000007 14.1285386099999997
  8.3484497100000006 12.3942366300000000  9.9350014899999994
  2.5699822000000001 18.6908543300000005 12.1887467399999991
  6.2664468600000003 20.1723240200000014 11.2497655099999996
 24.8090024100000015 14.9035138000000007  8.3564887300000006
 22.5061319500000003 10.5597239599999995  2.2806275399999998
  5.5070878800000003  7.6260782699999998 21.4974794500000002
  8.1371506399999998 11.0907471900000001  2.1880337900000000
 24.2838450700000017 13.5840984799999998  7.9431922000000004
  1.2312703500000000 18.9608377099999998 24.7994651799999986
  4.6112536799999999  1.3406391400000000  7.1219893699999997
 24.2752932000000001 19.8528270300000003 16.4639429499999999
  9.4891585700000007  9.2880635700000003  4.4843906899999997
 19.1543382999999992  1.9638601000000000  6.5967026899999999
 20.7821038199999997  9.8188737300000000  0.8108416800000000
  2.8161305799999998  5.7067099800000003 12.6745538599999996
 21.2267456000000010  7.9132598400000003 23.1581241300000009
 18.5923361000000007  6.3927600900000003 18.1188132999999993
 22.8952129599999985 24.8442094699999991  6.6284881899999997
  5.0010691400000002  2.9690699000000000  1.1577541200000001
  8.3735735200000008  9.6501416199999994 14.9302450300000000
  7.6282377700000001  7.7922668899999996 14.6296645699999992
  5.7724266599999998 17.1748287799999986  7.3473440099999996
 11.8106950000000008  2.3508868800000000 11.3557471799999998
  6.0429050000000002 13.1043907700000002 20.4956129099999984
 19.7661042800000004  8.9145854599999996  2.4378643000000002
 23.1853460200000008  1.1105347699999999 14.7578167800000006
  9.6266177600000002 19.5647665199999992  0.0308306300000000
 18.1704081799999990 15.0502744899999996 24.9633523599999982
  9.0631740099999991 24.7655751899999998 10.0221864499999995
 17.8875981599999996 11.8622148000000003 18.2441420200000017
  4.2949966999999996 11.0095199200000007 12.0013774499999997
 11.0678876099999997 17.9870666800000016  8.6296688600000007
 13.8444840399999993  9.2432442199999993  1.2055454500000000
 11.6024596199999994  2.5388417300000001 20.3129757099999999
  0.1826864900000000 20.4118389700000016 11.7776214400000008
 21.4835971999999984 24.8182129099999997 19.7044019299999995
 21.8832876799999987 17.4159563900000016  9.9790906300000000
 18.5762977999999990 11.8371457099999997 21.9080310800000007
  8.2783046799999997  8.4667553200000008  0.7567192000000000
 18.1795367100000007 18.4735259700000007  9.5509934100000002
 23.5461590700000016 15.2954700399999997 20.9648912299999992
  6.9268825800000000 20.1155984500000002  7.8631805100000003
  6.4747640000000004 21.3584839500000001 22.0396902300000015
 21.0736653199999999 10.0929780600000001  7.6821888400000002
 14.5477785799999992  4.5145883700000002  1.6867540700000001
 24.2756009900000009  0.0258614500000000  9.6534608800000008
 20.7169964299999982 15.5590116700000003  0.3091392000000000
 20.7025215100000004 22.2790624699999995 19.2029347299999991
 18.7239516700000017 18.4557682199999995 11.0965105400000006
 24.0526581999999998  3.0263566000000002 13.9753097499999992
  8.0309691500000007  1.4985495499999999 11.1222645900000003
  6.9009670099999996  9.5525178099999994 24.1667571400000014
 20.6871802100000011 14.4377619399999997  5.4650004900000004
  0.2631718600000000 23.1295238000000012 12.9065191400000003
 19.8672420000000010  8.7362471100000008  5.1051396100000002
  2.0814007999999999  7.1031997899999997  8.4789456699999999
  5.6399138300000002 15.0317767000000000 14.0710078099999993
 16.4283113199999988 10.6282963499999994  4.7766989200000003
  6.9788083700000003 17.8322736400000004  7.0230226399999998
 10.9415346600000003 19.3729880899999998  1.8108928000000000
 10.6752937499999998 19.6620167600000002  9.5156137899999997
  3.9209278900000002 24.0350484699999996  7.0596808600000003
  2.0562148900000001  8.8036484599999998 12.9196532400000006
 15.6119435499999994 14.9352721499999994 17.1189810700000002
 18.7148346699999983 15.2262193799999999  7.0691260400000004
 10.8013974699999995 14.0872268500000004 14.0217309199999995
 13.2315463399999995  7.5994172100000004 23.4049686000000001
 17.3072441700000006  7.8527283199999998  5.8048622400000003
 12.3196012499999998  5.5382327299999998  6.0775247700000001
 19.9587482499999993 21.6817871500000017  5.7966898499999999
 24.9662337699999988  7.4909860500000001  1.0026027700000000
  0.7447318200000000 16.7076607800000012  5.6546928899999997
 13.4233233199999997  5.7950932899999996 23.1329397899999982
 20.3190030999999998  1.4850579300000000  9.3686723799999996
  9.2766503500000006 12.6624280500000008 17.4282857399999997
 17.1984564900000017  4.4582985199999996  5.6233027699999996
 10.8497281399999999  1.3808094900000001  7.2651031499999998
  4.5885763600000002 20.2029129599999990  0.3580923900000000
 18.4587858900000015 11.8145138900000006 16.5349411699999997
  2.7563092899999999  0.2902264700000000  2.8362949700000000
 19.6096301100000012  4.0531809499999998 21.8121604600000012
 21.9809013899999997  8.0096120800000001 17.5501454899999985
 15.2953111199999991 18.2939470600000007 16.3682340300000000
  0.9092663400000000  7.0394083299999997 11.3358161600000003
 21.0621698299999984 16.8882916300000012 16.5174160800000003
  8.2120761699999996 20.3641266300000012  9.8762832300000003
 15.6922108799999993 13.9882595700000003  0.6785807300000000
  4.9063616300000001 11.2199804200000006 24.2109454699999986
 13.3605124600000007  0.1329278200000000  9.1179123700000009
 19.7531293800000007 15.8455238999999999 15.7201607100000000
  8.7410299800000004 10.4909522299999995 21.4340874799999987