Na Cl 
 1.0000000000000000
    25.0000000000000000    0.0000000000000000    0.0000000000000000
     0.0000000000000000   25.0000000000000000    0.0000000000000000
     0.0000000000000000    0.0000000000000000   25.0000000000000000
 15000 15000
Cartesian
 23.3154186999999986 12.2420423100000004  2.0051698600000001
  0.8897680900000000  4.3323050900000002 13.0515725800000002
  7.7802880099999996 13.3006198700000002 18.5182271800000002
 10.8442887599999995  9.9611858299999998 17.6502475200000006
 22.7101492299999990 14.4781684500000001  9.5770617799999993
 11.6772671300000006  9.8286278800000009 14.7488202600000005
  8.4221419700000002  0.9400640600000000 24.6566878600000017
  4.9529136300000003 18.6193760600000005 10.8533919500000007
 12.9584871600000007 18.2937688700000010 13.3734738300000000
 17.9746333599999986 24.6628703999999992  8.8628356499999992
  7.6787740600000003  7.1556431900000002 14.8950216100000006
 15.6281665000000007 12.5944332499999998 24.6396514700000004
 18.6222593900000000  9.3134877700000001  6.7888908399999996
  0.8882683000000000  4.1253306299999997  9.4319657699999997
 23.0486952999999986  4.4219741299999997 20.1191510099999995
 17.5709428999999986 14.8373976200000008 22.1417759600000004
 11.8286408200000004  3.9662446299999998 10.6734343700000007
 13.4115199599999997  7.4160028300000000 15.7595361799999996
 20.5245314400000005  5.7998750000000001  3.4991864800000001
 10.8272194200000005 23.0768159600000011  2.0458481100000001
  9.5691028199999995  2.9111159999999998  2.1265766199999998
 16.3733263600000001 11.4960926499999996 14.8292055499999993
  9.4577443799999994  6.3098450899999996 24.5664598900000009
 13.4913441800000005 24.0216129199999990  6.2483835100000000
 16.5815906700000006 11.7943509899999999  2.6570654299999998
  7.2986042600000003 17.6418426299999993  6.4490755799999997
 14.6133018799999999  5.7647678000000004 13.4523813200000006
 19.1728616100000018 13.2850896899999995  7.5023556300000003
 17.0910389500000015 24.0915906600000014  7.3642416500000003
 20.8094825300000004 19.9727979100000006  7.8145002899999998
 13.3063172800000000 14.2744420499999993 10.5475545099999994
 22.7486412300000005 11.4130908200000007 19.8174299299999994
 21.5448316099999992  3.9847922300000000 22.4030047799999998
  2.3012692700000001  2.4326234800000002 10.1028862099999994
 24.2085433899999991 22.9887736099999991 22.3181254100000004
  0.7337684500000000  7.4463621599999996  1.0088760299999999
  6.1794262299999998  7.6166337700000000 12.7638407699999998
 21.8718097500000006 24.5065197499999989  6.0773755800000000
 17.4513752000000011  5.2629107900000003  3.7415916100000000
  9.9302188000000005 22.1873001300000006  1.9532829100000000
  3.8258120999999998  0.4239940900000000  1.0686729800000001
 11.1867862799999997 16.3170174800000005 15.1127385200000006
 24.7962423500000000  0.4451477000000000  6.5973449899999999
  6.5772105999999999 18.1785043100000010  1.1218783500000000
  5.4093458900000000 14.8764535200000001  3.5542358500000000
 11.0420056399999993  7.9888542300000003 18.6731047200000013
 13.8710296799999995  5.3957937899999999 12.1062159400000002
 19.1712394000000010 11.0205627600000007 22.5982459800000015
  8.7202411699999995 11.0932622399999996 19.4584498199999985
 13.1660510100000003  6.8194069099999997 13.7719640499999993
 15.3997144200000005 23.0001753899999990 13.9477550200000007
 19.9186773899999991 23.2109728299999993  6.8202881800000004
  3.5833678700000000  0.6637753600000000  6.0724294900000002
  9.3224201499999992  6.9154799200000001  3.4710987400000000
 13.7564740899999993  5.0600411599999999 19.1118211500000008
 12.3779975100000001 12.0040697099999996  2.3996185300000001
  5.3886163900000001 16.4756473099999994  6.2043629300000003
  1.7277079399999999 12.5873636900000001  5.8214743100000002
 16.5186721699999985  4.3231202700000004  8.6823087099999992
 23.5625051700000014 15.0243144900000001 13.6536360899999991
  1.6617617800000000  4.2302539899999996 22.8788789500000007
  0.3184592900000000  2.3453456500000001 18.2243009100000002
 20.8253377700000009 11.4518665300000002 21.5207634399999996
 24.4710706900000012 10.2850370899999994 10.6182967799999997
 11.7140280800000003  2.6700008300000002 24.7039897099999983
 24.9551116800000017 20.5620694800000017 11.7016973100000001
 20.4267645500000015 12.6317351500000008  1.5727219299999999
  7.7374700499999998 18.6591184000000005  3.8028984200000000
 15.3137985299999997  4.0119592400000004  3.9988658300000002
  8.9379932899999996 20.8532072600000014  4.8543925899999998
 12.7762355299999992  5.1905848299999997 13.1593098800000003
 18.5211679899999986 10.2703541999999999 13.8430910699999998
 10.8316388700000008 22.3545386899999983 12.7317784500000002
  8.0004592199999998 13.7181618800000003 11.1466843000000004
 17.3230103600000014 22.8351994800000000 16.1975877100000005
  7.8566179199999997 21.1773507000000016  2.7332928999999999
 13.4537295199999996 16.8319615499999991 19.7777664800000004
  4.9213077399999996 12.4192370200000006  5.1165273100000004
 18.4744783999999989  0.5584621100000000 11.0726929900000002
 23.7510885899999984  9.5459675599999994 14.0767426300000000
 12.8133749500000000  4.3928393999999997  5.4517926900000004
  3.2797517200000001 22.7870804000000007  7.4603072600000004
 10.3841779499999998  1.8787261099999999  0.7497431600000000
  0.9332858100000000 10.7346873100000000 17.8895887800000004
 20.3185737700000004 19.2693411300000008  9.8164490799999999
 10.0597195799999994 23.7070479300000017 19.3545726599999988
 17.3026416500000018  5.4982641699999997  9.3259681099999998
 16.5459569299999991 12.8980744499999993  2.9372094299999998
 15.6789390100000006 15.9279310100000000  0.7364888300000000
  3.1678157200000001 16.4787636999999982  8.5815565599999992
  5.2210772700000003  0.6456217300000000  0.9643588000000000
  7.9783293700000000 16.7817023799999987  0.0718625400000000
  7.7936747000000004 13.2907354299999998  2.3904304800000000
  0.9651549200000000 21.3586815700000017  0.3612013400000000
 20.7109532799999982 13.9917176300000001  8.7981771500000008
 20.9633363000000017  5.7932660100000000 17.4218754900000015
  9.4614399099999993 18.4204985100000016 18.3184981700000016
  3.9986831299999999  5.8673173099999998 12.0020292899999994
 18.1062293700000012 11.3969753699999998 23.9649861699999995
  4.5225540500000001 10.5659962299999997  7.6986909199999998
 16.8982610800000010  9.0739164900000002  5.3144355399999998
 19.7181975899999991  3.7469120400000002 24.3505964299999995
 10.4741745799999997 14.4521553100000002 22.3743567699999986
 20.8142277600000014 24.7260442400000002 20.6254603000000003
  2.1112143799999998  8.1800348700000001  6.8461366699999999
 13.0190600199999995 11.3418167000000008 21.9133510800000018
 22.6916385799999993  3.3696204399999998  8.2108016300000006
 23.9429626499999983  9.3732459699999993 11.1450969600000001
 15.6446784900000004 15.1114217499999999  2.6654223300000002
 22.7531705600000009 12.5376410400000005 20.1329173600000004
 23.9420929800000017 19.7567187500000010  1.1719607900000000
 22.1449470499999990 15.1250415199999999  6.5728313700000003
 19.5767842200000004  2.0123988599999998 22.3876940900000001
 19.9745525199999996 12.3042596599999996 22.6920407299999987
 10.1284729400000000  4.2446420700000003 14.6992102800000009
 24.6271750699999998  8.9313261100000005  8.7979914299999997
 17.8419845799999983 20.2349098100000013 13.1292510599999996
 13.3225755400000008 12.5270375999999999 16.9210108699999999
 16.4296213800000004  7.6466123000000001 16.6129715000000004
 14.2120057699999993 11.1809204700000002 17.7303961699999988
 19.7683907900000015 22.3440151200000017 10.8620942899999999
  9.2186541799999997 12.9208118800000005 10.0853198800000001
  3.9712852700000001 20.3915337000000001 20.5068332899999994
  8.3471674000000000 15.8425679400000003 16.0393469499999988
 23.3041206800000005 22.3563234299999998 17.7279039099999984
  2.8810755399999999 22.2365387800000001  4.5073072999999999
  4.3138399900000000  2.7086391500000002 24.0981529700000010
 17.6569591199999998 10.5120006900000007  0.1955653100000000
 11.8661249000000009  8.9611864000000008 10.6598113500000000
  9.4493263400000007 14.8278721699999991 12.0475229899999992
  7.7188312500000000  5.3967535800000004  3.2373412799999999
  9.9948259799999999  8.0402719900000008  7.8514067000000001
  8.5924523199999996 13.3461827199999998  9.2930448999999999
 13.2056062300000008 21.6238868999999987  7.6671100799999996
 11.1191806999999994  5.0700539500000001 12.3967608699999996
  2.3599883099999999 14.3235039700000009 10.1312761099999999
  1.3576240799999999 17.5878298099999988 23.6555916699999997
  4.5292256000000002 22.6945842700000000  2.8778627600000002
 18.2394823700000011  0.9802370500000001 24.8440206299999993
  3.4546998000000002 13.1395323800000003 11.1207867599999997
  7.0630058699999996  7.9396219500000003 16.2261059199999984
 12.1622546499999995 11.0139297500000009 11.1172900000000006
 23.2930381699999991 11.0924525799999998  5.8505459300000000
  5.1253617900000004 16.9555733500000017 22.3213354499999994
  4.6848449399999996 13.1889270799999991 16.2974274900000005
 10.8638405299999992 13.5677345599999999  7.9147934600000003
 23.9336843100000003  3.4322515000000000 10.8510102699999997
 22.9295432900000016  1.8340871299999999  0.5024420600000000
 19.5436443900000008 20.0312211900000001 14.7344623400000003
 17.1085680400000015 18.7031305600000017 18.5153195299999993
 11.9752651500000002 18.2813516800000002  4.6776634100000001
 17.4888994300000000 10.9326812499999999 20.5737512299999992
  8.0369314400000000  1.7067945700000000 11.0963155800000006
 20.7759530499999983  6.4429057600000004 10.9170397399999999
  7.6869861000000004 20.1754260099999989 13.3849286799999998
 10.4962734100000006 10.8671829599999992 19.7440434899999993
 13.1389721799999997  1.7054688800000000 13.8154249399999998
 20.8468882700000009 23.6511487199999983  4.8564668800000002
 22.6387974000000014 15.2678685699999992  7.0670276599999999
  0.5338209900000001 21.9294067099999985 17.5385895500000011
 21.0745663000000008  0.2358286200000000 13.5715776399999992
 22.5054276400000006 23.7223404600000016  1.3760610000000000
  2.4572679000000002 24.3015440500000004 11.0508935499999996
  7.3678293999999998  6.1087227799999999 19.3037704499999982
 13.4700171900000001 15.5789879800000008 11.0509887899999999
  8.9685175699999995  8.8748427599999999  9.4822923899999996
 18.8882488399999993  4.7982196999999998 18.6785725400000011
  5.7686488400000000  3.6810602499999998 17.5796961299999985
 11.9527911400000004 15.5606183199999997  2.3120697400000001
  8.9560624700000009 24.5419658799999993  1.8206036100000000
 23.8848330100000013  7.3883967200000003  1.7836045700000001
  2.0420331200000001 20.4505943700000010 13.1395295900000004
 11.0738285399999992 17.8362770099999999 24.3076887799999994
 14.3253143800000000 15.5588301799999993 22.2588117799999985
  3.8495927100000000  0.1047369600000000 10.3140175599999999
 22.6931702800000004  4.1128968500000003  0.4573409400000000
 11.5292587700000002 22.2521817800000008 17.4191168099999985
 13.0962674799999998  8.9675360600000005 17.3786172999999984
  7.4208889300000003 22.8802592000000011 23.5164047600000004
 15.2147360999999997 14.0696861500000008 19.2151187700000001
 23.5010990100000008  7.9709788699999997 18.2418766400000010
 16.2206885499999984 21.1124269399999989 11.5595638899999997
  6.5903365899999997 13.7870270399999999 18.5633896900000011
 19.8905811600000000  0.9975919200000000 16.5273244699999999
 24.7423439099999989 19.5740157400000001  5.4824813600000004
 19.0642912299999985 13.5426394499999994 11.1411884699999995
 24.9546350900000000 12.5519762000000004 11.0639774899999992
  2.2696309800000001 20.6879647999999996  2.6244115099999998
  8.4842429100000007 19.6705382799999988  2.7368016200000000
 22.4248349100000013 19.2002862000000007 24.2101068999999995
 24.2665910400000016 23.5955949099999991 21.1635704900000015
 21.1293083400000015 20.2852111300000004  8.5434414299999997
 14.6200355299999991 18.9371978399999996  2.4840467600000000
 24.3739306700000000  2.6527555299999999  9.8622305600000004
  4.5090176700000004  8.0598986200000002 12.7160442899999993
 18.5564422700000016  3.1252606599999999  1.2558346499999999
  6.8129687299999997  5.5653652999999998 12.0946258100000001
 24.3760390800000017 13.0887946100000008  8.3709404799999998
 15.3967192799999992 22.6609683100000012 12.8944181800000006
 16.4863189400000003 10.5624412000000003 22.9492531000000000
  8.0969055900000004  9.6922837800000003 23.2135324599999997
 24.8400790600000008 12.2087885200000006 18.1086839600000005
  2.6513330100000001 10.9538464300000005  1.2969085100000000
 22.1413911200000015  5.3605379400000004 19.5612337099999998
 15.6549062899999996 12.0099918300000006  1.9326435399999999
  6.9399953300000004 15.5014609799999992  8.0546191799999995
 23.9845828099999991  8.8833691199999993  2.7848744700000001
  5.3851525400000000  8.2588082600000003  5.7903705800000003
 18.7582940799999989 20.6485445100000007 15.0876220199999995
  2.6632113500000001 10.5931780000000000 14.5426478800000005
 18.2828692299999993  5.1832138499999996 14.2751239000000005
 22.0073156999999995  1.9549298600000000  6.5061149000000000
 23.2730988399999994  0.9722123700000000 14.9733731399999996
  7.4822968400000001  4.9629437100000002 12.1948697399999997
  9.1757675699999997 17.1255079200000004  3.4115741200000000
 13.3261704400000003 22.9466082900000004 13.6454761100000006
 14.5169670400000008 11.6650613300000003  4.6857934500000002
  4.1304586199999997 20.6180963099999985  3.3446195900000002
 13.0214494399999996  1.5006783100000001 21.9003160000000001
  3.6110187900000001 15.3927993500000007  6.7785918900000004
  2.7938290000000001  5.8840811500000001 18.7519096000000012
 13.3447174600000000  9.6663957299999996 13.1129902400000002
 15.0269349499999993  7.6957464599999996 17.4107586300000001
 22.6203743199999998  5.6312649700000001 19.6702725299999983
 23.2704883400000000  7.0975863099999996 14.1330425500000008
  9.0460714800000002 12.3233808499999995 19.0619371199999996
 23.9772122900000006 10.0070095099999996 12.8088103199999992
  2.6750503900000000  9.5719640100000003  0.9990679600000000
 16.3351540899999996 19.9347554100000011 18.4341764999999995
 23.2043990200000003 21.3342593799999989 14.8974825699999993
  6.9895497400000002 23.3625463700000005  4.3167869500000000
  2.2382083200000000 17.5673063999999997  3.7187364999999999
  0.8043848300000001 19.2958900900000003  6.0247615400000001
  8.1671305899999993 14.9637483499999995 20.7184836399999988
 15.5544784899999993 24.1200214399999986 10.2002819000000002
 11.1378929899999992 19.5674198399999995 19.6252870100000010
 17.1988032400000002 10.2860087300000007  1.9487988800000000
  3.4627676100000002 23.7352929900000014 19.0692611800000016
 22.0726959200000010  0.8002616700000000 24.9978904600000007
 14.5449819799999993  7.5121538299999999  6.7693920600000004
 23.1723603900000015  7.8610753899999999 21.0940964899999983
  3.4796251300000001  7.0596431400000004  1.4222789800000000
  4.2428088600000002  8.8885554399999993 14.9512577499999999
 10.7890417599999999  6.4248884899999998  8.1009212900000005
  2.1841530499999999  9.0602532799999995  0.6768262600000000
  0.4189501800000000 16.2955934099999986  5.0385112400000001
  7.2584644799999998 18.0125299900000009 11.5915840200000009
 19.7526180599999996  7.2517791300000001  5.6518901000000001
 16.3169937300000001 14.7135936800000007 16.3690470499999989
 14.5737157499999999 15.4406168899999994 10.4481025800000005
  1.2600015700000000  1.8464514100000000  8.3087856099999993
 20.7597558500000012  9.2165428699999996  2.4360536599999998
 17.7538787700000000 14.4404529900000007  0.6933927800000000
  3.8524065200000002 22.3963558399999982 15.5526514599999999
 18.4130659899999998 18.4000574800000010 24.7661277200000001
 19.3085648899999995 19.0501194299999987  0.3572653200000000
  4.5581757899999999  9.2605481100000002 17.0320575199999986
  7.7907467500000003 14.0806777800000003  3.9514779899999999
 12.4906561499999995  5.4579332000000003  6.4833439100000003
 15.5610984800000001 10.3822303999999992 19.1463062999999991
 16.9699472900000004 13.9041364699999992 11.8216905699999995
 12.1533789300000006 11.8396141400000001 13.3948318799999999
  1.9394727899999999 21.7191789700000015  9.2410322100000002
 14.0283348799999992 24.2243325499999997 13.3570847700000002
 17.5238063400000001 22.6131693300000016  9.5369839600000006
 13.0894485800000009 19.3622934700000009 22.0663875400000009
 19.7754590199999996 16.1396914699999989  9.7945405900000004
 16.8437203699999998 17.4082647299999991  5.7052754600000002
 13.5646407199999999  5.9165917600000002 15.1577058200000003
  5.5617207600000000  0.8407641700000000  5.7233577699999998
 17.4741029599999997 12.2484284199999998  9.3363891999999993
 16.6932528799999993 13.5011538800000004 13.8932773600000008
  4.3125203699999997  5.5298826200000004 15.7372234599999992
 20.5146567299999987 14.8356494199999993 17.7598248299999995
 14.3759490400000001 16.5755269799999994  9.8819140599999997
 10.3296462600000005 10.3647102499999999 24.6852283499999992
  9.6328464700000005 24.2506730499999996  6.0619230300000000
  7.7403550499999998 17.1473891400000014 21.1693394099999992
 18.0874578600000007 20.9042909700000017 13.4182529200000005
 20.5768889699999988 10.7729641100000002 11.2077502599999992
 18.6585962599999995 20.0273862300000012  0.2803983100000000
 12.6543150000000004  6.0721933600000000  5.3538639600000000
  7.3915572300000001  4.9023466899999999 18.7408290099999988
  2.1131303899999998 15.3824138300000008  7.2292305399999996
  1.6777637100000000 23.1746289300000008 20.9884071900000002
  2.1597041400000001 23.1474965700000013 14.9748280099999995
  6.9344179700000002 21.7628841000000008 18.7931367400000013
  6.2491893000000003  5.1245356900000001  3.0713986300000000
 20.9967247700000001 16.9531379000000015  6.3886415799999998
 23.8990773700000005 21.7933148400000007  5.2424546599999999
  9.9354511399999996 10.1273200200000009  9.8675300799999999
 18.5779913199999989 15.3000854400000001 23.5359501400000006
 18.7140635800000013  2.2665345200000000 18.6457397699999987
  3.9483747100000000 10.3337748099999995  4.7533001099999996
 13.7149056599999994  6.4194276400000003 16.3203063499999992
 20.3888193199999996 24.8863398999999994 14.7147467800000005
 10.7490939300000008 10.0216052700000002  8.1197023399999999
 17.8372780199999994 16.1316434599999994 24.5315963400000001
  2.5396867300000001  9.5149010199999999 16.9414957800000003
 10.7196271400000001 14.7732630300000007 19.2317862599999998
  3.6317035199999999 13.0411001399999993  6.7701348499999998
 10.6563976500000006  2.0753872599999998  6.0336628399999999
  7.7713095299999999 12.3992202299999992 18.6943705700000002
 21.2862479899999997  7.9700500200000004  2.6306178800000000
 12.7946793700000008 15.1762445100000001 17.1414161900000011
 20.7818705299999991  5.8980583900000001  3.6674266599999998
 13.4398439300000003  8.4568696299999999  9.6077913000000006
  3.1483748800000000 14.7366517899999998  3.9065910300000000
  8.0754221000000008 23.6192161300000016 18.1655428199999989
  8.2782162199999991  6.9799408200000004 11.8654167000000008
 22.0584527100000010 11.4147138100000003 22.0950660300000017
  1.7747363899999999  2.9945046899999999  3.6403041699999998
  7.5921837700000001  1.8326920900000001  2.0560093699999999
  5.3494803900000001  8.7168562499999993  4.2029927699999998
 14.6995477300000008  5.2987492100000004  6.0779487600000000
  2.0848531200000000 15.1263362099999998  3.3326814800000002
 12.3776033699999992  5.3798307699999999 18.8157341500000008
 11.0439105099999999 15.0039873000000004 22.0146172699999987
 24.6723998500000015 19.0241997500000011 14.7251169599999994
 10.0407720600000001  5.2559959500000000 12.5239212900000005
 14.5451868500000003 10.9553649800000006  1.8192856500000001
  1.7338600900000001 15.9866151100000007 12.0401959699999992
  9.5736501799999996  4.3385467000000002 17.9544652000000013
 10.6965566800000005  2.0281246099999999 11.6902494200000007
  3.0219330599999998 14.6289106300000000 18.1009478500000007
 22.6304908900000008  0.6603110800000001 22.8483510400000007
 12.2359737699999993  0.0111430300000000 12.2809075300000003
  5.2129271900000003 13.6673329900000002  6.8656088799999999
 15.2884735700000007  3.3752583800000000  2.9675891399999998
  1.2706825200000000  6.3610570700000002 10.2860936400000007
  3.3757416500000001 11.0899908200000006 14.4756622000000004
 17.4545641300000014  8.8592570899999998 22.5339089399999999
  2.4075417699999999 13.5544849999999997 10.2293479900000008
 24.6516444700000008 20.1886387300000010 10.4511126799999996
  1.8508264200000000  6.8396770499999997  4.4522526300000003
  4.0100288099999997 21.5542607500000010 12.4603563899999994
 21.2097816399999992 22.7999973300000001 24.5551815100000006
 23.9357024199999984 12.3505619200000005  0.8941545300000000
  3.0551382399999998 22.7083235700000010  8.7943007899999994
  5.8133123800000002  4.3412023399999997 12.5876621100000001
 10.8370030499999999 12.5102037199999998  8.9938489500000003
  9.6193518499999993 22.4466007500000018 10.0188728499999993
 12.1959371399999998  2.1155668400000001  6.3319343899999998
 20.8212426300000004 17.6248186699999998 20.3273854000000007
 17.3663570199999988  1.3623692900000000 22.3406848099999991
  4.8896622799999996  5.5538565899999996 18.6676704999999998
 22.5380830600000017 22.5619418500000002 23.5567321199999995
 17.9967059399999982 20.6366864800000016 15.7897157999999997
  2.7534797300000000  2.7338806400000002 23.3319771399999993
 15.5397111500000005  0.9253080000000000  1.6515682199999999
  7.9071177199999996 19.9275309699999994 22.0129489199999995
 21.6324753799999989  2.0137298200000000 19.7570227100000011
  6.2806233200000001  8.4361575000000002 11.4991043299999998
 15.4464444000000007  8.3910050100000007  2.6212745200000001
  5.7609280900000002 23.9184883200000016 23.0331694999999996
 18.4798660999999989 16.1095544400000001  3.2815094199999999
  2.3288851300000002 16.5723218699999997  6.0136014299999996
 20.5991909600000014 10.6024410000000007 20.2259591400000005
 12.6952813199999994 19.5931157800000015  1.4968649400000000
  7.8090041799999996 20.9332461800000011  0.0685458900000000
  2.0507509700000002 16.9715751399999988 16.2633624700000006
 13.3330367499999998 13.3485752699999995 24.5045388300000013
 22.7841964099999998  8.9890588699999991  4.1124261700000000
 17.5466425599999987  6.4214483600000003  0.2826400900000000
  0.3320218900000000  5.2918721900000003 15.4959752900000005
 15.8566631000000005  2.9366963600000000  7.0556497000000000
  9.3045101700000004  5.9023612900000000  0.9862091600000000
  0.2174020400000000  3.8760806099999998 20.2868167399999990
 10.5289582900000003 10.2019978699999996 14.9782593700000000
 14.6051721099999998 19.1277087600000009  4.4011944500000002
 20.8750535100000008 22.0243975499999998 14.0496333999999994
  7.1885706699999998 18.3071792400000000 13.7615602599999995
 15.5433637400000002 12.3143701799999992 17.6195397000000007
  6.6037502899999998 14.2310720100000001  6.6273052999999997
 10.1201346300000008 14.1027392200000001 24.7380481900000007
 22.3759549799999995 22.6753053599999994  3.8571751000000001
  2.5418989299999999 21.6952421499999986  6.9347381199999996
  2.1435129700000002  1.0224851699999999  9.9081983800000000
  2.0902330600000001  5.5471194900000000  5.4373253300000002
 10.1267853599999995  0.8814885500000000 15.1780900400000007
 23.1592741599999989 12.9207289400000001  8.6912478600000007
 23.8027722699999984  3.1935177100000001 23.4520844299999993
  9.1830033600000007 13.7375032499999996 11.2170837399999996
  0.5264285100000000 22.6840337800000000  0.5558144500000000
 16.5735226599999983  1.1952641799999999 13.8050310399999994
 21.1566522799999994  4.8548968400000003 21.2512151399999993
 19.1729203699999999 14.2725818300000000  4.2827745899999998
  5.5925669100000004 19.2719860999999995  4.2704221300000000
 22.9848174699999994  5.8272487699999997 13.5701511499999992
 23.5303237100000011 24.1505873899999983 23.9221817899999998
 10.1093869000000005  8.4656365499999993  6.9534757300000001
 17.0666333500000000 13.9066862899999997  4.6765407200000002
 23.6199144600000004  4.9023574800000000 18.9222051200000010
  0.5013706000000000  1.5357556999999999 11.4460378699999996
 23.5584907299999990 22.5537720800000017 11.2473879599999993
  9.8495175600000007 15.8417018299999999  1.4826914400000000
 19.5950637999999984  9.2373067800000008  1.4150328900000000
  7.4578507700000003 19.0979278500000014  3.8733791700000002
 24.8837007600000000 20.3586033399999984 17.0463478299999984
 22.9679318600000002 22.0307728999999988 21.2000636100000008
  9.4691493500000004 22.9930853299999995 19.7852176100000001
  5.1524118799999998 21.5864287399999988  3.1079014200000001
  9.4991585999999995  2.3585607799999999 15.3309863699999998
 17.8879444200000002 17.6819029800000003  4.7434052800000002
 22.4125809300000007 13.2476181999999998  2.7191171399999998
  0.2018312500000000 17.1777496499999991  6.4384408400000002
 10.8752677200000001  5.6244882799999996  5.7744903200000000
  1.8587537700000001 15.0746133699999998  9.0269336800000008
 15.6742787299999993 12.6026057599999994 11.9949755400000004
 24.5539531000000011  3.2897403100000000 15.6654402499999996
 14.0542040299999993  9.0071241799999999  7.7360302699999997
 19.4607672799999989  2.1157385700000000  9.2181037099999994
  3.6690651200000000 15.9775111400000007  9.0297854700000002
 13.6043336900000007 23.0363074300000008 21.2190293099999998
  3.2256253899999998 13.0859189800000006 10.0403710799999999
 23.5167093800000018 20.3345512100000008 12.8022447100000001
 17.3267656999999993 10.9511500300000009  5.9785129799999996
  5.8675928199999996 16.6325006600000016 17.4385842699999998
 15.2858520599999999  9.3155386799999995 16.2585689600000016
  7.7685872500000004 16.6458742199999996 17.2079962199999983
 14.7924297199999994 16.3663189399999993 18.7223444699999995
 16.4434460400000013 14.9976238100000003 15.0633681500000005
 20.0285294100000009 19.4937435199999989  6.3473170699999999
  4.3579160600000000 18.4952294299999984 24.3210422299999998
 13.7568228399999999 10.9214047599999997  6.0498062700000004
  4.0939224200000002  6.5541204799999999  5.1028974399999996
 14.3972371500000005 24.3648457500000006 24.9624435300000016
 18.7884491300000001  2.4644561700000001 20.1148583999999992
 20.4251231599999983 10.0449574699999999  0.6001854900000000
 12.3175308900000005 20.7416080299999983  4.2061061400000002
 17.0258699600000014  3.7964956000000001  7.7016125400000002
 16.0018801099999983 18.5989502299999998 17.5565524599999989
 22.9771518000000015  1.9903406600000000  1.6555171600000000
 24.2768812899999986 21.5438767599999998 12.9366263999999997
  0.8799725100000000 14.6979752999999995  3.8708611500000001
  7.5633916200000000 17.9229979800000017  6.8271103999999996
 18.2445689999999985 11.4711903300000007 21.2959130999999999
 20.4114311400000012  4.9230915900000003 17.4002967200000001
 21.7869014499999984 22.4526100799999995 11.0175811600000007
 22.4865905899999987  7.1280945800000000  1.8856466100000000
 17.0625038599999996 19.5024437000000006  2.5712871200000000
 15.6226889100000008 20.5324603299999993 14.0608339999999998
 20.4370131000000015  9.8791656400000001 14.1368496199999996
 23.0315316599999989 15.9525688199999998 14.8242078900000003
  0.4620189400000000 15.1523773700000000 16.0065339100000017
 21.8154889499999989  2.9228105599999998 23.6770359100000007
 14.9425303199999995 14.1070334400000004 21.9110645700000006
  9.2622089200000008 19.9453904599999987 22.1774934700000017
 12.1326855299999998 14.0457428699999998 16.8004294600000001
 14.8179113099999995 19.6354190899999992 12.4886631099999992
 21.9608771099999984 21.4616464600000008  5.8919706900000000
  1.3513447400000000 12.0510012799999995 16.1784834099999983
 11.7706230699999992  3.8618762400000000  6.5539880799999999
  2.8776649999999999 14.9156233500000006 11.8816126400000002
 19.2636843999999989 14.7436719099999998 21.8938034399999992
 19.1543532200000008  2.2144995800000000 19.0943679700000004
 19.0425471100000010 23.0893485799999993 12.6816198100000008
 14.9840727400000002 12.3105442400000005  3.3171115699999998
  0.6941425200000000 16.4532523399999988  4.8121557499999996
  2.9016515699999998 18.0579693399999996  0.2906529500000000
 10.0040752600000005 13.4929010199999997  0.1875132700000000
  1.5354825500000000  6.8552853200000001 16.7804106600000011
  3.3619055300000000  3.5462549700000001  1.9072325200000000
  4.8569814300000003  6.2869354299999998 14.5237667699999999
  0.9480531700000000  8.9295963999999994  4.7267471600000004
 17.4394820899999985  5.3754833099999999 20.7479681099999986
 11.1000271000000001  8.1554422500000001 18.5179667499999994
  6.4671960899999998 19.1647220599999990  1.4836769000000001
 11.1576177500000000  1.0814647500000001  1.1781281299999999
  0.7995337700000000 12.7641013500000007  1.2514459899999999
  8.0527646599999994 17.8156759200000003  3.0651995599999999
 16.8089666400000013  8.3022608099999999 11.0974524199999998
 14.8828596399999995 11.2219890699999993  7.9703805900000004
  8.1865574199999998 16.4704822100000001 19.3944707600000008
 12.8700686399999995  7.2437094300000000 20.0244327099999992
  0.6404773200000000 14.5023487499999995 15.9753730399999991
 23.0946196899999983  1.2731849300000000 23.4191828300000005
  6.2057962000000000  0.8166855400000000  1.0339342400000000
  2.3327914500000002  7.2259726500000001 21.9223321200000001
 23.6358876000000002 23.3628671399999988  9.7079814100000004
 12.0435707399999998 16.2935004499999998 19.8621119700000008
 22.5158762099999983 24.3313921999999998 12.7086408800000008
 19.1273453300000007 23.2929089000000005  8.9198524799999994
 15.9605573799999991 24.0879204499999986 20.6789513999999990
  1.1362298300000000 21.6147202599999986  3.6034659400000000
 13.4520248500000008 13.1815802800000004 17.8198213900000013
 22.7380822800000004  8.9487982499999994  2.4521707099999999