Na Cl 
 1.0000000000000000
    35.0000000000000000    0.0000000000000000    0.0000000000000000
     0.0000000000000000   35.0000000000000000    0.0000000000000000
     0.0000000000000000    0.0000000000000000   35.0000000000000000
 Na  Cl 
 19900 19900
Cartesian
  7.3038893900000001 11.4689423399999999 13.5139198399999998
 13.4507253000000002  1.3400620100000000 17.4221829700000015
  4.6291132599999996 31.5066315599999989 16.9566903199999999
 21.0942908600000010 16.7465081900000001 23.5631698599999986
  1.1958696300000000  8.9808763500000008 21.5887960300000010
 32.8948148200000006  3.1527420099999999 33.1350036700000032
 15.0066456099999996  6.6927766699999998 30.4974390900000003
 30.4588548699999997 11.9737244000000000 27.3859697900000008
 25.9942115300000012 14.7131664400000002  9.1884315099999991
  9.9684722800000003 30.1135561699999990 18.5385641300000010
  7.6473482800000001  8.9825872499999999 15.3438549799999997
  4.1706763300000000 26.5571518399999995 26.0509569100000000
 23.4328025999999987 15.1132443599999995 13.2979881399999993
 24.2867186799999999 16.8808188399999999  5.9222683800000002
 30.5646689599999988  5.3911906199999997 29.7407166099999998
 17.2240639900000012 34.8434141400000001 28.2614016899999996
  4.3781210799999997 13.0810002799999996 17.3716848100000014
 30.9065992200000004 12.2130566300000005 24.8427584199999991
 17.2407389400000000  0.0994362200000000 26.2245779500000005
  1.4816674599999999 17.3850734600000010 10.9296246600000000
 14.2016590699999998 22.2840044100000014 27.2620394300000015
  8.0966233600000006 34.9487605099999996 13.8178278300000006
 11.2323232599999994 26.6570803800000000 25.5499246299999996
  2.5832954799999999 17.4471819100000012  4.7863382100000003
 13.9862955800000002  7.6697726900000003  0.8695774900000000
 19.9888777600000012 23.0685398500000005 17.9493134000000012
  9.1103030199999999 26.8627815000000005 17.7686768899999983
 18.1524111700000006 27.5745248399999987 10.0389256499999995
 24.2234635400000009  3.7517101199999998 19.9920182699999991
  5.8510220200000003 23.1270417200000011 21.1901709300000007
 18.2027476499999992 33.5797234799999984 34.4124572799999981
 30.1695293299999996 14.2794582200000004 34.8542607300000000
  0.5601208100000000 33.9504942200000031  0.9562771400000000
  7.1498125400000001 11.8994085700000003  3.3598904100000002
 14.6781115799999995 15.0213102599999999  8.1615017600000002
  5.3600446200000000 31.2698998500000016 28.2067695399999998
 31.1756051899999989 18.3963825199999995 33.0010084999999975
  2.9498731299999998 18.5177553900000014  7.9148853499999996
 25.4780617599999992 19.7839857899999991  9.4492390099999994
 18.3600757399999992 17.7930456799999988  7.7186801799999998
 17.8577619900000002 10.4058008100000006 30.2942260800000014
 10.0577240499999991 25.1680816299999996 24.9480196899999989
  1.3670135000000001 15.3959220600000002  4.2621067400000001
 23.2280502599999998  3.8406412099999998  9.6568362800000003
  7.4472949100000001  6.6855241100000002 13.6036553399999995
 16.6352831499999994  9.2038406899999998 23.9505443900000010
  1.7994901599999999  4.0311070899999999 25.8168218699999983
  8.3251038400000006 25.0202703699999986 25.6840452500000005
 16.7484527099999987 21.2446400100000012 23.6646646899999986
 27.0193781999999985 24.6894339400000007 30.3163091199999997
 31.2073986499999982 27.7490613599999989  3.4743150900000002
 12.8137152800000003  5.1127022400000000  4.1865681800000001
 13.6514513399999995 14.9427459900000006 17.7319337600000004
 30.6107098999999998  9.2012633899999994 15.6337427899999994
 11.3150094699999997 16.3642211800000013  3.4654118500000002
  3.1770177700000000 21.1377206300000005 11.6705675200000005
  7.2283837000000002  2.4448459699999998  0.5261785900000000
 23.4835431399999983 27.9095401299999999  5.6410473600000000
 29.0829595400000009 22.3010395499999987 33.5717581299999992
  5.5389283599999999 27.7690247499999998 23.9989437999999993
 10.2484014299999995  9.8827650100000000 24.6315143100000000
  1.8610741300000000 24.0729809400000008 29.5906727200000006
 15.4364838599999992 20.9842230500000007 21.8368023200000003
  1.1366707300000001 29.0248832099999987 26.2120356500000007
  0.6831855500000000  2.2994880400000000  7.4955479800000004
 12.6748814400000001 16.7323224500000016 30.1433959700000003
 30.0561020600000006 32.9073896199999965  4.4974262400000002
 23.2428235900000004  7.1361582800000001 27.4122612399999994
 12.8746200500000008 13.7391121599999995 18.2580112999999997
 17.3959309100000006 18.4107764500000002 29.9198738199999994
 18.3193416300000003 33.1747422899999975 17.8937367899999984
 20.0342275900000004 15.2631849499999994 13.3494447800000007
 14.1183659699999993 22.3767956800000007 11.8049541599999994
 25.8645108899999983  4.8345366199999997 19.0569154199999993
  4.5774896700000003  3.8689178399999999 29.9021526400000006
  0.4793852800000000  7.0283664300000002  0.7545221000000000
 11.2530047500000006 24.2507531199999988  7.4077063599999997
  6.3207152100000004  7.2605671899999997 18.3527743100000009
  0.0777670700000000 12.0311760099999994 12.9752340900000007
 24.7592780599999998 14.1864297399999995 11.3246717599999993
  3.7583310299999999 26.2696451800000013 23.9264890600000015
 17.5015807499999987  9.0676474500000008  9.9506089099999997
  9.8838962299999995  8.6439566299999999 28.9790545699999988
 25.9700828900000005 29.1831517200000015 26.2309844900000009
  4.1563861500000003 31.3820798500000002 23.6160646000000014
 15.1976539699999993 31.9702867799999986  4.6099901100000000
 25.1038252799999988 29.9915518299999988 33.0115435900000023
  5.0131034100000003 10.2290612200000002 34.8318532300000001
  8.9571886400000000  8.4694920899999993  1.7535826900000000
  2.4641891399999998 10.6269443399999997  2.0535792800000001
  4.5070245599999996  9.5617859700000007 19.9367454399999993
 21.8805959799999989  2.1766071800000000  7.2369525799999996
  6.4620146900000002  2.0808287100000000  7.4880747100000002
 27.0716334399999994 27.9433045100000008 13.1189514900000006
 25.2176489100000012 18.0251520099999993 23.7298229599999999
  2.1344667700000000 33.9829357699999974 21.2015010500000010
 33.6282120899999981  9.3605487099999998 32.7421950199999969
 28.0716437300000017  0.1162516200000000 28.8409938799999992
 15.5840587700000004 16.2757672500000012 21.8202352899999994
  2.6945662399999999 32.5748648799999998 15.7540144099999999
  2.7201882600000000  8.2041632100000008 22.3711033899999983
 21.1346336900000011 29.7884700100000011 14.8154923099999998
 13.9792699900000006 29.5906395700000004 14.8793246299999993
  1.8090851400000001 25.2939152599999986  4.8337791000000001
  6.3252518300000000 13.5075609500000002 11.5769572400000005
  8.9202941899999999 18.3844164700000015  6.8876194100000001
 15.2194259499999998 12.8918684500000005 23.6331123199999986
 21.7188411700000010 13.5636274199999995  8.8860600600000001
  3.0115058200000000  4.3783848699999997 17.5144428000000012
 15.2402232099999999 12.4314896499999996 21.0465379599999984
 19.1635714800000017 12.1458141499999996 14.6984063200000001
  6.1150659300000001 15.9131637599999998 17.5433015400000016
 10.2689707299999995  5.5910262700000004 28.3784434099999991
 11.4983504700000001 17.7763351999999983  6.8657800399999998
 33.1651729800000012 32.0623572200000027 12.0378417599999992
 20.0064229599999983  2.9506764699999999 32.0194163199999977
 25.3301005299999993 17.9996465199999989 15.0590735299999992
 12.8488606200000000  0.8003696500000000 11.8127081000000000
 16.1849855600000012  1.0522910200000000 10.8552331300000002
 23.9032077100000002 11.2119970799999997  0.0349273800000000
 27.0244961500000009  5.7067105600000003 12.6844542199999992
  2.6220476000000001  3.7539924199999999 23.3505410200000014
 32.5428914199999966  3.3761307899999999  7.6302528199999999
  1.6590798000000000 24.1541628499999987 29.0150015600000017
  0.1311971700000000  0.0307805600000000 27.3289169600000008
 12.1072933400000000 32.2791099499999987 15.0009896000000005
 16.6322086300000009 27.5304724500000013  4.6504627699999999
  5.3278571200000000 15.2945864700000005 16.1148251400000007
 11.8661482199999995  4.3530527100000000 11.7568636800000004
 22.6078086499999991  9.4399775699999999  2.7031002100000001
  1.0052906900000000 25.9206874300000010  3.9937148699999998
 27.3658662200000009  3.1135717500000002  4.8004266199999996
  5.7702017600000000 29.7810625699999996 30.3186190099999990
  0.0296729100000000  8.7125671899999997 27.1167708300000001
 16.5673642900000004 22.6916872500000011 19.1875934299999997
 30.8827294099999996 31.0332118600000015  5.1917839499999996
  3.3129151000000001 30.1640375700000014 26.9794854099999988
 19.2113058300000006  9.4170265799999999  1.9656602900000000
 31.8525462099999999 20.7442196599999988 13.0998676799999991
 19.4760925600000014 14.6877337299999997  1.7407479400000001
 31.7507081999999983 24.1527160800000011  4.6991375099999999
 18.4041483399999990 23.5211729799999993 30.3542920100000018
  4.5858689100000003  4.6987194099999998 11.3772035700000007
 11.6603996999999993 11.3377325899999999 13.2716707799999991
  1.9707727100000001 12.7769629600000005 17.4165084400000012
 14.2573687899999992 13.5972083500000007 13.2806877599999993
 13.5191783000000001 31.8297653700000005 22.8665350700000012
 17.8549107099999986 32.4843548600000034 34.5520913599999986
 31.9995246999999985  6.0115544600000002 26.1958021800000012
  7.8471876299999996  7.6824945500000004  4.6858682600000003
  5.3878822399999997  9.1368283300000002 17.6737100600000012
 32.0448949199999973 33.5488771300000010  5.9779874000000000
 22.0342828900000001 30.1925349899999986 15.9356356300000002
 10.2279553399999994 16.2453610600000005  0.7833279000000000
  5.3920506100000001  9.1945336199999996  7.5265846700000001
  9.3084971500000009 32.9115392300000025  4.2398462500000003
 34.0959028600000025 29.8393558799999994 30.0543587999999993
  3.6083197400000002 25.0299109000000009 12.7124679900000004
 18.4495350400000007 16.3354317299999998  9.6011106900000005
 15.8672900400000003 16.5436779700000010  9.5956667600000003
 29.3712810100000006  3.1200100700000002  8.0092950100000007
  2.2212489299999998 22.5307423200000017  9.1861176800000006
  6.0799086700000000 20.0249847699999997 34.9190293999999994
  4.1270818800000004 28.8651013600000006  0.7585215400000000
  8.4714989299999992  0.4825341000000000 24.9505492800000006
  8.8817687799999998  0.8878738400000000 12.4955741000000007
 13.1139407499999994 11.0022372799999992  9.6019711099999991
 30.3285029699999988 26.1494084499999992 33.1077792500000001
 12.4457932299999996 16.4467746000000012 25.9406286699999988
 24.1460823299999987 33.2056593399999969 12.5164843099999992
 14.5518478099999999 27.9061770500000002 19.1175998199999988
  9.5001877300000004 34.6551890300000025 14.7619832399999993
 24.6522349399999996  0.1127097400000000  4.3126118599999996
 32.0675293899999971 28.9664599500000008 24.2923083899999988
  5.8270684199999998  5.5389591999999999 28.2872869199999997
 19.4312746400000016 31.4328371799999999  1.6945009799999999
 24.4779757499999988 11.3383927799999995 24.3674666600000016
  9.0122237399999996 23.4444783600000015  1.3477922499999999
  7.3443737000000002 26.8888290699999999  0.5501027700000000
  5.5771947800000001  5.9126582000000001  9.0462907000000001
  1.0077615700000000 32.4487723399999979 31.5167154399999987
 11.4363644499999992 25.9773306599999998 10.9964021400000007
 16.5307162199999986  1.7475044700000000  5.3076477600000000
 25.6359129900000013 12.7896860100000005 21.2527955900000016
 20.7354219700000009  5.2370950299999999 29.8561714800000004
 32.6740617900000032  2.9565820700000001 26.2748400199999992
  6.2361340299999997 20.7046819299999996 13.5891504600000008
 17.8518244800000012 15.6140360299999994 30.1035711299999988
 25.7199586199999999 25.3444639900000013 14.4062759699999994
 31.2803080599999994 28.1375098500000007 22.1280867000000008
 31.7531853099999992 30.7854395399999987  5.8823655500000003
 24.9178043199999983 18.5371957099999989 19.6482317299999991
  2.8307045700000000 10.6516801000000001 32.7874968499999966
 19.4595858200000009 17.2588701399999991 24.8304715700000003
 20.7357249400000008 10.3290482699999995  0.3142042500000000
 30.8307617200000017 32.6121634400000033 12.6310089300000001
 14.3671468800000000  3.6376603200000002 28.1569157399999987
 33.2829078700000025 15.8325285699999991 27.3077171900000018
  5.8028716100000004 18.8631248900000017  2.5399668000000002
 24.2219925499999995 14.0287966100000006 21.9846081200000008
  0.3086070700000000  6.7590554400000000 24.4447286900000016
 12.5550761899999994 33.1654481300000015  1.6867240299999999
 33.7707219099999989 24.5231483399999988  0.5541260800000000
  3.1969860500000000  6.7445262100000001 25.2520291700000001
  0.8543295200000000  8.7161772899999992 17.7917942099999991
 21.6852345299999989  8.7367493500000002 13.5463484399999992
 33.4781804899999997  7.7795064700000003 25.1652330299999996
 12.0714971000000002 25.6517827300000008 34.5122721099999978
 27.7573368100000017  2.5597754799999999  7.1465448599999997
 26.9795058300000008 19.5545312500000001  3.0067255899999998
 29.0370651600000009 20.9540817200000014  5.2514163700000003
 25.5549840999999986 17.6177366500000012  1.2998919900000001
  7.2846259099999999  2.7076596799999999  7.6363244000000003
 33.7041345499999991 25.3894021000000016 34.6810801600000005
 29.9142968899999993 29.5878476200000016  2.9549581200000001
 33.9811598599999982 26.3537635500000000  2.7040589700000002
 17.1190806299999991 20.3880732800000004 12.3476354500000003
 11.7089847299999992 22.9063520400000016 22.0587493899999991
 21.4009719300000008 26.1352699199999989  5.4815600699999996
  8.5800544399999996  4.9749318400000000 33.6793852599999965
 29.4281284999999997 13.5557733400000000 16.8826029499999990
  0.9077891100000000 32.2115823399999996  0.0643559500000000
 31.6304108600000013 32.3152869099999975 28.0271563300000004
 22.4165119799999992 14.3167709300000006 31.9690203500000010
 18.3250832199999998 24.6736795999999998 10.5330973300000004
 34.7667592999999968 34.9235477799999998 10.0675558899999995
 15.4118116599999997 26.3186048899999996  6.7923226100000003
 23.5660661699999991 14.8741646200000002 20.0848134499999986
 25.4596782499999996 25.8123496599999989  3.1606534700000002
 26.1029434000000009 22.1696841499999984 30.8814598999999994
  9.6965335400000008  9.6391697099999991 25.5252542799999986
  7.9486306100000004 32.6346543000000011  5.6347829400000000
 28.7968487499999988  8.6369744500000003 16.6296521199999994
 19.5631965000000001  8.6436005599999994 22.9946604400000005
  1.2580681600000001  4.3515619000000001 21.7008598900000003
 26.3521351300000006 10.3350500099999998 31.1854992700000011
  9.6862241999999998 11.3700458500000003 31.3605734399999996
 12.1577830500000008  5.8597319299999997 29.5144655000000000
 29.6216491399999988 11.0571325900000001 22.2275204600000009
 22.9364008999999989  2.0898966699999999 19.8933112100000002
 26.8814817599999998 17.0640050499999987  4.7329363899999999
 26.4619472999999985  0.9482748100000000 12.6547525099999998
 28.4254585999999989 31.6827138700000006  1.3720255699999999
 29.6337953700000014  5.1987396099999996 15.2166449400000001
  1.1515781500000000 34.5739641700000035 14.6158675000000002
 18.8850101300000013 20.3653127900000008 14.8120805900000008
 26.6384364399999995 27.2012740899999983  1.8136240600000000
 31.5795321599999994 17.1969465100000001 34.0800439799999992
  8.2992024499999992  9.6956591900000006 29.9440266000000008
  4.2550362000000002  9.3934377199999997 25.5076988900000003
 27.8952921700000012 11.1754357399999993 15.5485624100000006
 14.6883479099999992 12.0632594199999996 27.2010017499999996
 32.2363720000000029 31.7041366300000007 11.4242607500000002
 32.5503885500000010 24.3804019499999995 16.4155352100000016
 25.9002335600000002 10.2253757699999994  7.8904841699999997
  0.3675079000000000 16.7052722200000012 30.5102317999999997
  0.4658885900000000 25.1895059199999984  0.0260036300000000
 17.0429296800000003  0.5190944199999999  9.4199310399999998
 15.7809167499999994 34.8677758199999985 17.7082402999999999
 17.3947111700000008 32.9106587400000024 24.4414341999999998
 27.1845702299999985  1.0719366299999999 26.0389126600000012
 31.0051313200000003 23.2420342899999994 28.8703449899999995
 18.8882917500000005  5.5194196299999998 14.8857499299999994
  4.7990891099999997 18.2907170000000008  7.0806236599999997
  4.0418112700000002 30.7220024800000004 24.6957291499999982
 31.1198603200000008 26.4923268299999997 21.5370443000000016
  3.1035190699999999 10.8450409699999994 27.6035896799999989
  8.5317024700000008 32.3234101999999979 24.5552723099999994
 15.4616878999999994 24.5884940699999994 13.8198761099999992
 10.6578606699999998 31.6642742000000013  6.4564510400000001
 13.5725818799999995 19.3836973199999996  1.8008721299999999
 27.2578535899999999  7.7452726900000002  9.7980747600000004
  1.2425368400000001 23.3167113999999991 23.9684738300000006
 23.1396336299999987 22.8224742200000001 12.3242818399999994
  4.2048268200000001  5.5242900400000003 26.7426851799999987
 29.3098130700000006 20.0281935199999985 18.8484268399999984
  0.5099736400000000 31.1269103399999985  4.9820704100000004
 13.6573520899999998  9.1165406600000001 26.6988369299999988
 27.3522348099999988 19.0104643600000003 28.8744204400000015
 17.3843624500000011 33.9797371000000012  2.4413879700000001
 12.4076778599999997  5.8418588099999997  9.1209996499999999
 31.6411358000000007  2.5694453400000001 29.6677549499999991
 15.9574186000000005 26.3344349800000010 27.8487281499999995
 33.5740806499999991  9.5734928900000007  6.6950339600000000
 33.4357640799999984 29.8868788599999995 23.7730648199999983
 28.9004687099999984  0.1775670200000000  9.3688918599999997
 32.9655312399999971  1.6834914500000000 14.4408491500000000
 17.3516372899999993  8.9679803800000002 14.8461866600000008
  4.8591346700000004 12.4764581999999997  6.8330301699999998
  7.7381491100000002 30.0721170300000011 22.0709029000000001
 15.6650224999999992 12.0330899000000002 10.1420030600000004
  6.6454358800000000  4.8409174400000001 21.2993837399999997
 33.7424569200000022  4.4734129400000002  4.6513614099999998
 20.4311453800000002  1.2604562100000001  9.4875705099999994
 32.5974834299999969 10.9039745299999993  3.0998436900000002
 19.0729562799999997 29.1762664700000016 15.5106016800000006
  6.6824128199999997 31.3123169799999985  6.1114497500000002
 25.1359671300000009 10.1996070900000007 29.7964273700000000
  8.5547989900000001  0.5067079100000000 11.2398783499999997
 13.6354214500000008 25.5283193200000014 24.4628496300000009
  2.1138140200000000  1.8721891399999999  0.8829367000000000
 34.5171983999999981  5.5535537699999997 28.5781434400000016
  7.8567646199999999 28.6428918099999983 11.0826916400000002
 31.7983806199999997 20.3830213899999997 32.4405684399999998
 33.6337766799999969 32.8846830700000012  7.8682823400000004
 12.2212091100000002 21.8614703500000012 30.7321646199999989
 20.4907811600000009 23.5589533399999986  0.3287221000000000
 29.8322630300000000 15.8447457800000002 22.6422585400000003
 28.4393538100000001 20.2195377200000017 14.7703927400000001
 25.9907113900000013 25.8863010399999993 21.0615423499999999
 26.3422199200000016 18.6902042199999983  1.2623917499999999
  7.0181091200000001  3.3600341399999998 17.0938378499999999
 16.1326874700000005 32.0782770900000003 34.6030147700000015
 12.8692356799999992 28.2440175000000018 27.2020690300000005
 15.1742146800000004 23.0261160599999997  4.9325987099999997
 22.1865038000000006 33.5693697000000029  0.3966195300000000
 15.9844817500000005 26.1848200300000009 33.2702515399999967
 13.1176818799999992  3.8793270400000002 29.8496022500000002
 27.2650444800000002 23.6025321000000012 32.7569847999999979
 31.6435490399999999  8.1286648600000007 13.4702723300000002
 14.8670556999999999  5.6051124300000001 20.1245482299999985
 28.2821236200000001  2.6516705200000001 11.6264380000000003
  0.5434436200000000 33.6569446900000031  2.2694067200000001
 26.9187462300000000 13.3679528199999993 10.1830471700000000
 31.4737532800000004 24.3714277300000006  5.5859033699999996
 12.2778942200000003 29.5681395299999998 21.7210581000000005
 15.8234453199999994 14.6455409900000006 27.6074385500000012
  3.2196966800000002  3.4421508500000000 32.2292899099999985
 17.6755866600000004 28.5849282400000000 16.8889604499999990
  2.7582737200000000 18.3064304299999989 26.1762889100000002
 29.8877622400000007  3.6199612299999999 10.6883988799999994
 19.9199572700000012 19.7219052599999998 16.0617554300000016
 29.9235273600000014  9.7243695999999993 22.4798015800000002
 28.0252266299999988 24.9840377599999997 11.7227056500000000
  8.5138441399999998 12.1783924500000005  2.2418435699999999
 18.6649537199999997 31.8771664699999988 14.5368454699999994
 20.7617689699999985 28.0510328700000002  3.7094869099999999
 10.3464729999999996 13.1717765300000007  3.0481388200000001
 25.0691889400000001  7.8584973400000004 22.7647335599999998
 21.8769944800000005 11.6462151100000000 17.9374072300000016
 19.0033067500000001 13.5765116399999997 15.4311710099999999
  1.6911021799999999  2.3543630800000002 19.7803372099999990
 18.1274836099999987 28.6170822999999999 32.3021839900000032
 17.8062736699999995 20.0416473599999989 34.9671439800000030
  7.7889161199999997  8.3132636299999998  1.0218401699999999
 24.0677769300000008 12.1268091400000007 10.2812673199999995
  2.2598461799999998  6.2347371999999996 32.2281177200000002
 32.9745021100000031 12.4569690899999994 29.2795585600000017
  1.5406867799999999 29.3227098999999995 26.7853208000000009
 10.8867039999999999 27.8341301200000011 33.2248785499999997
 20.5337923099999990 11.4473023600000001 34.8108399300000002
  5.7867190900000001 27.3877021300000010 20.1097530499999984
 24.6195498300000004 10.7739816400000006 23.3095019100000016
  7.7986683599999997 32.2191540999999972 22.3229201699999997
 16.3193100099999988 18.6434022599999984 19.6617619599999998
 20.2332984499999995  1.0470785300000001 28.2489296299999992
  4.7602469699999999 30.4707562600000017  2.0004612499999999
 21.7522222399999983 14.5991382999999999 17.7173725600000012
 30.8805736099999990 29.8006049299999987  8.7669968199999992
 31.9155204700000006 29.1525407100000002  1.7516877200000001
  5.6154446800000004 18.7788077199999996 20.4213589800000008
 11.7804233000000007 33.5743523200000027 14.1395141100000004
 27.8137035099999999  4.9148124900000001  3.2535949799999999
 13.1708796400000008 22.9741603099999985  6.7123357900000000
  9.2276835899999998  4.6781423999999996 15.5393767700000005
  0.3053878900000000 22.6543473199999994 21.6153825200000007
 24.7340500399999996 10.1789441800000002 32.5147528399999999
 20.4509416000000002 18.9754574900000001  0.5140022000000000
 28.8349047899999995 18.2448107999999998  5.5350716999999996
 32.9500953800000005 22.2530075200000006 31.2973435000000002
 34.4521591700000016 32.4391982400000032 10.6048025300000006
 14.9161386199999999 25.5418032799999999  6.0877763399999996
 12.2568935999999997 26.6107820100000012 17.4132392799999991
 29.3125390599999989 30.8439939500000015 10.0063505799999994
  1.7342630299999999 27.7586941699999983 25.3728983700000015
  2.3028923200000002 29.7111987500000012 11.1173255700000002
 18.8908945099999990 14.2640888399999994 21.5411083999999988
  1.4089394200000001 20.0448392700000007 18.6135790499999985
  8.4230775700000002 26.6646486500000002 12.7498693500000009
 17.0541614499999987 14.2914340099999997 26.1314557299999990
 11.3764738399999992 34.3957746999999969 29.7853113200000017
 31.7273121600000003 15.9355367900000005  8.5668867300000002
 28.6652055499999996  1.1097452299999999 31.4880511699999985
 19.6760652600000014 15.6288783900000006 34.5591517800000005
 10.6640311000000008 30.3706714899999994 34.8756683800000005
 10.3584294400000001  4.1235511000000002  4.5232608499999998
  2.4451725500000001  6.0150461399999999 14.8805015899999997
 21.5901551800000000 20.7380692300000007 14.7295738200000006
  4.9471870300000003 22.3724478399999995  8.7308096200000005
 18.7173301400000014  2.1676539799999999 31.7604073900000010
 12.1669874300000007 20.5577033000000000 28.3193503600000014
 33.3214867200000029 34.2272644700000015 32.6340187500000027
 29.9531585100000015 17.7351462600000005 14.6031096199999997
 14.4633497000000002 10.5183954400000008 32.6721203299999985
  5.3263355099999998 24.7208683600000008 33.6344659499999992
  9.4691574500000009  3.1292250300000002 22.8850423599999999
 13.9069914600000004  4.8054735500000003 20.5939961999999994
  8.2942047799999994 30.6996598300000016 34.1827363000000020
 19.2489239499999982 11.6648278699999999 15.7620432200000007
 32.6603730499999969 17.8898138300000014 24.1009797699999986
 10.1669728500000005  6.3126127199999997 11.0819768700000001
 19.7852168599999985 30.1397331599999987  3.4952119499999998
 14.0272794600000008 31.4859448800000017 19.2756361699999985
  5.6171045199999998 11.6756661499999996 22.9210616499999986
 24.2832278300000013 28.2100894999999987 16.9742526699999985
  1.2645943900000001  9.0379705399999999  1.1709305999999999
  9.8305920699999998 22.7609545100000012 28.3624860699999992
 23.3034286500000007 10.7253995500000006 11.7901885899999996
 22.6996550500000005 13.1024847100000006 28.4604443300000014
 24.6878540800000010  3.7635904800000000  9.6651206199999997
  6.6823172199999998 29.7054851100000015 20.0881660800000006
 11.8072672700000005 29.7410218899999990 22.3549142799999991
 29.0442539699999998  1.7765529200000001  3.5248581200000002
 22.2903391400000004 28.7298537100000004  2.6513201899999999
  5.7384647500000003 21.3769788100000007  7.8829243099999999
 13.3089074099999998 32.8068601200000032 29.8980985399999994
  2.3421536000000001 24.5756353200000000  7.7029066999999998
 32.7529646799999981 34.0774466599999997 34.6460234999999983
  0.7170441100000000 11.3603927500000008  9.1209561200000007
 30.9094876700000007 25.7593207699999986 21.9042095500000009
 14.0498357400000007 25.5892455000000005 33.4491942699999996
 10.6081338400000007  0.9054364600000000 27.6705343200000016
 13.6703870500000004 18.1951647200000011 11.1335220499999998
 11.1050873899999996 23.2038143599999991 16.5079397199999995
  3.9429573000000002 14.2833209900000000 29.7759111999999995
 13.7395264699999995 25.2214059500000012 11.1698644700000003
 26.9121196500000011  6.9950007300000001 34.9773205400000009
  3.8263899200000000 15.1353443900000002 34.7330904299999972
 29.0508319899999989  7.3332146900000001 14.3392814099999999
 25.3025975599999988 10.7571774399999995 20.8812710400000014
  6.5223929600000004  1.8584324800000001 14.6747316399999992
 28.2146264199999983 23.2261770399999996  7.3575838500000001
  3.9118506399999999 16.4737541699999994 24.3863369699999986
 11.1653897799999999 21.7060330000000015  8.2966408400000002
  1.6426453700000001 27.9406952799999999  4.2655348799999997
 10.8447241800000000 22.2793497999999985 19.0321176100000002
  7.8007475299999998 32.1637754500000028  1.5739125899999999
 27.7488309999999991 34.6026884799999976  7.3852987399999996
 14.7158655799999991 19.5528069699999989  9.0267759200000004
 23.0228613499999994 20.2307386200000003 28.0239223099999997
  3.0622600699999998 17.4050498199999986 31.6722960100000002
  1.2791228900000000  8.2183435300000003 15.6996609399999993
 34.2014804499999983 19.2819265500000014  6.3395745300000002
  9.2291091800000000 28.6379066500000015 32.2970650800000030
  1.7728356000000001 11.0479697500000000  8.2275047000000008
 29.6714626499999987  8.2726924499999992 19.1419442599999989
 33.6572158900000034  6.8274841799999999 19.5265608099999994
 22.9075992100000008  8.0198793800000008  5.1128221299999996
  6.2015452099999999 34.3703866800000029 23.0889983299999990
 11.7948987699999996 31.8636540400000001 32.4333754199999973
 17.7406333700000012  1.8250143900000000 13.0168678799999995
 24.4984007800000008  4.6218883100000001 15.0768732399999994
 32.0085776100000032 18.1639601000000006 11.6774045300000004
 17.1379546599999983 22.6039676699999994 14.8845620600000004
 19.8344907100000007 18.2854310700000013 23.2400234599999997
 30.0742824700000000 23.4653982799999987  2.9489573700000000
  3.1265741299999998 13.3314787599999995 27.1635394499999983
 32.6075477799999973  5.0554889899999997 22.6034266499999994
  5.7916905900000000  5.9437812799999996  7.1319718300000003
 27.0505014999999993 22.7786760699999995 11.2087426499999996
 15.3377239799999998  6.1268985999999996  4.7847676400000001
 22.5897129999999997 20.3063681199999984  4.1290111400000002
 26.2901796499999989 19.0493770200000014 17.8796456699999986
 28.2048501999999992 33.9173459599999987  3.8334813099999998
 29.3203043399999999 21.3551189800000003 25.4846241599999992
 25.0782294099999987 19.8016258600000015 25.9258809700000015
 21.2814460099999998 12.2631606000000009 26.9401726199999985
 23.4812728100000001 24.7520768099999984 33.1549553500000016
  0.3345976600000000 23.5828467800000006 16.9057551000000004
  5.0259857600000002 16.7426710199999995 29.0718523100000006
 10.6217450200000005 19.6686055000000017 30.2527125000000012
 12.3390568199999997  7.5280101000000004 33.2657960900000020
  8.2348242799999998 12.6916174599999998 18.0147337299999997
 23.6297982799999993  1.0196277199999999 21.8830139099999990
  7.8147165100000002 21.9403744500000002 26.8732995099999989
 19.5448359399999987 15.0576478999999992 23.8882745999999990
  5.2312135800000004  1.0067015600000000 14.6330992799999997
 28.4996089200000000 17.9271059500000014 20.8697747400000004
 23.3040103800000011 20.5025304800000008 11.0297153800000007
 16.4264338099999989 34.0730407300000024 30.5956176699999993
  0.5461703800000000  9.4856195000000003 34.8069919599999977
 11.1137906399999995 29.4792036599999996 31.9759806699999984
 30.3071550199999997 17.3544794899999992 21.7368512600000017
  1.2591415200000000 22.3915778299999992 15.2486635300000000
 14.2879543400000006  2.6486375199999999 30.6507514400000005
 17.1794860299999996 20.6217587299999998 19.8988964199999998
 15.7521286200000006  6.0256624099999998 18.3081419499999996