Na Cl 
 1.0000000000000000
    35.0000000000000000    0.0000000000000000    0.0000000000000000
     0.0000000000000000   35.0000000000000000    0.0000000000000000
     0.0000000000000000    0.0000000000000000   35.0000000000000000
 200 200
Cartesian
 32.6415861799999973 17.1388592399999986  2.8072377999999998
  1.2456753300000001  6.0652271200000003 18.2722016099999998
 10.8924032200000003 18.6208678200000008 25.9255180600000017
 15.1820042599999994 13.9456601599999992 24.7103465299999989
 31.7942089299999999 20.2694358200000018 13.4078864899999992
 16.3481739799999986 13.7600790400000008 20.6483483700000008
 11.7909987600000008  1.3160896900000001 34.5193630099999993
  6.9340790800000001 26.0671264799999989 15.1947487300000006
 18.1418820300000014 25.6112764199999994 18.7228633600000016
 25.1644867000000012 34.5280185599999996 12.4079699100000003
 10.7502836899999998 10.0179004599999999 20.8530302499999998
 21.8794331100000008 17.6322065499999994 34.4955120600000029
 26.0711631399999995 13.0388828700000001  9.5044471700000006
  1.2435756200000001  5.7754628900000000 13.2047520800000004
 32.2681734299999974  6.1907637800000002 28.1668114100000011
 24.5993200700000010 20.7723566700000006 30.9984863500000003
 16.5600971500000007  5.5527424800000000 14.9428081200000005
 18.7761279499999993 10.3824039599999995 22.0633506500000003
 28.7343440100000009  8.1198250099999996  4.8988610799999996
 15.1581071900000008 32.3075423399999977  2.8641873499999999
 13.3967439499999994  4.0755623999999999  2.9772072700000001
 22.9226568999999998 16.0945297099999998 20.7608877800000009
 13.2408421399999998  8.8337831300000005 34.3930438399999971
 18.8878818499999994 33.6302580899999981  8.7477369100000004
 23.2142269299999988 16.5120913800000011  3.7198916000000000
 10.2180459700000004 24.6985796800000017  9.0287058099999999
 20.4586226400000015  8.0706749200000001 18.8333338499999989
 26.8420062500000007 18.5991255600000009 10.5032978799999999
 23.9274545299999986 33.7282269299999982 10.3099383200000005
 29.1332755399999996 27.9619170799999992 10.9403003999999999
 18.6288441899999988 19.9842188699999994 14.7665763099999996
 31.8480977199999984 15.9783271500000001 27.7444018999999997
 30.1627642499999986  5.5787091200000001 31.3642066899999996
  3.2217769800000000  3.4056728800000000 14.1440406900000006
 33.8919607500000026 32.1842830599999985 31.2453755700000002
  1.0272758300000000 10.4249070300000000  1.4124264399999999
  8.6511967199999997 10.6632872800000005 17.8693770799999996
 30.6205336499999987 34.3091276399999998  8.5083258100000005
 24.4319252700000007  7.3680751000000004  5.2382282599999996
 13.9023063100000002 31.0622201800000006  2.7345960699999998
  5.3561369399999998  0.5935917300000000  1.4961421699999999
 15.6615007899999998 22.8438244700000013 21.1578339200000016
 34.7147392899999971  0.6232067800000000  9.2362829800000004
  9.2080948399999993 25.4499060300000011  1.5706296799999999
  7.5730842500000000 20.8270349199999991  4.9759301999999996
 15.4588079000000000 11.1843959300000009 26.1423466100000006
 19.4194415499999984  7.5541112999999998 16.9487023100000016
 26.8397351600000000 15.4287878599999999 31.6375443800000014
 12.2083376300000008 15.5305671299999997 27.2418297400000000
 18.4324714199999988  9.5471696799999997 19.2807496600000015
 21.5596001800000003 32.2002455399999974 19.5268570299999986
 27.8861483499999991 32.4953619599999968  9.5484034500000003
  5.0167150200000004  0.9292855000000000  8.5014012799999996
 13.0513882100000007  9.6816718900000005  4.8595382300000001
 19.2590637300000012  7.0840576300000002 26.7565495999999996
 17.3291965099999992 16.8056975900000012  3.3594659400000002
  7.5440629399999999 23.0659062400000003  8.6861081000000002
  2.4187911199999999 17.6223091600000004  8.1500640299999993
 23.1261410299999994  6.0523683699999999 12.1552322000000004
 32.9875072299999985 21.0340402900000001 19.1150905299999998
  2.3264664900000001  5.9223555899999996 32.0304305299999967
  0.4458430100000000  3.2834839100000002 25.5140212700000006
 29.1554728800000014 16.0326131399999987 30.1290688099999997
 34.2594989600000019 14.3990519199999998 14.8656155000000005
 16.3996393199999986  3.7380011700000000 34.5855856000000017
 34.9371563600000030 28.7868972700000008 16.3823762399999993
 28.5974703699999999 17.6844292100000011  2.2018106999999998
 10.8324580699999995 26.1227657600000001  5.3240577900000003
 21.4393179499999995  5.6167429300000000  5.5984121599999996
 12.5131905999999997 29.1944901600000009  6.7961496199999996
 17.8867297399999998  7.2668187700000004 18.4230338300000014
 25.9296351799999982 14.3784958799999991 19.3803274999999999
 15.1642944199999992 31.2963541700000007 17.8244898300000010
 11.2006429099999991 19.2054266300000016 15.6053580200000006
 24.2522145100000017 31.9692792700000012 22.6766227899999997
 10.9992650899999997 29.6482909899999996  3.8266100600000001
 18.8352213199999987 23.5647461699999994 27.6888730800000005
  6.8898308400000001 17.3869318200000009  7.1631382300000004
 25.8642697599999991  0.7818469500000000 15.5017701900000002
 33.2515240299999988 13.3643545800000005 19.7074396800000002
 17.9387249299999993  6.1499751600000003  7.6325097700000004
  4.5916524000000001 31.9019125599999995 10.4444301700000004
 14.5378491200000006  2.6302165600000000  1.0496404200000000
  1.3066001400000000 15.0285622300000004 25.0454242899999997
 28.4460032799999993 26.9770775900000004 13.7430287100000008
 14.0836074199999999 33.1898671000000007 27.0964017199999994
 24.2236983099999996  7.6975698399999999 13.0563553500000005
 23.1643396999999993 18.0573042199999989  4.1120932100000003
 21.9505146099999990 22.2991034100000007  1.0310843700000001
  4.4349420000000004 23.0702691800000004 12.0141791799999993
  7.3095081700000000  0.9038704200000000  1.3501023200000000
 11.1696611200000007 23.4943833300000016  0.1006075500000000
 10.9111445800000002 18.6070296100000014  3.3466026800000002
  1.3512168800000000 29.9021541999999982  0.5056818800000000
 28.9953345899999988 19.5884046800000000 12.3174480099999997
 29.3486708299999997  8.1105724200000004 24.3906256900000002
 13.2460158700000008 25.7886979200000006 25.6458974300000015
  5.5981563799999998  8.2142442300000003 16.8028410000000008
 25.3487211099999996 15.9557655100000009 33.5509806399999988
  6.3315756800000003 14.7923947299999998 10.7781672900000007
 23.6575655100000013 12.7034830900000006  7.4402097600000001
 27.6054766299999983  5.2456768499999997 34.0908349999999984
 14.6638444099999994 20.2330174400000011 31.3240994800000010
 29.1399188699999989 34.6164619299999998 28.8756444200000004
  2.9557001299999999 11.4520488199999999  9.5845913399999993
 18.2266840300000013 15.8785433900000008 30.6786915200000010
 31.7682940100000017  4.7174686200000000 11.4951222800000004
 33.5201477100000034 13.1225443599999991 15.6031357499999999
 21.9025498899999995 21.1559904600000017  3.7315912700000000
 31.8544387899999997 17.5526974500000001 28.1860843099999983
 33.5189301699999973 27.6594062399999991  1.6407451000000000
 31.0029258699999986 21.1750581300000000  9.2019639099999999
 27.4074979100000000  2.8173584100000002 31.3427717199999982
 27.9643735299999996 17.2259635200000005 31.7688570199999987
 14.1798621100000002  5.9424988900000004 20.5788943899999985
 34.4780450900000019 12.5038565599999991 12.3171879999999998
 24.9787784200000011 28.3288737399999988 18.3809514800000002
 18.6516057500000016 17.5378526500000014 23.6894152099999999
 23.0014699399999998 10.7052572200000000 23.2581601000000013
 19.8968080699999987 15.6532886599999994 24.8225546299999991
 27.6757471099999997 31.2816211700000011 15.2069320000000001
 12.9061158500000008 18.0891366399999995 14.1194478399999994
  5.5597993800000003 28.5481471700000000 28.7095666099999995
 11.6860343699999998 22.1795951100000011 22.4550857199999996
 32.6257689600000020 31.2988527999999988 24.8190654799999990
  4.0335057499999998 31.1311542900000013  6.3102302200000002
  6.0393759800000000  3.7920948100000000 33.7374141600000002
 24.7197427699999999 14.7168009600000005  0.2737914300000000
 16.6125748599999987 12.5456609599999993 14.9237358899999997
 13.2290568799999999 20.7590210299999995 16.8665321800000001
 10.8063637400000001  7.5554550100000002  4.5322777900000002
 13.9927563700000004 11.2563807899999997 10.9919693800000005
 12.0294332500000003 18.6846558099999989 13.0102628599999992
 18.4878487199999988 30.2734416599999996 10.7339541199999999
 15.5668529800000002  7.0980755300000000 17.3554652199999992
  3.3039836299999998 20.0529055599999992 14.1837865599999997
  1.9006737100000000 24.6229617300000001 33.1178283400000026
  6.3409158300000001 31.7724179800000002  4.0290078700000000
 25.5352753200000002  1.3723318600000001 34.7816288799999995
  4.8365797199999996 18.3953453399999987 15.5691014600000006
  9.8882082199999992 11.1154707300000002 22.7165482899999986
 17.0271565100000011 15.4195016500000008 15.5642060000000004
 32.6102534300000002 15.5294336099999999  8.1907642999999997
  7.1755065000000000 23.7378026899999988 31.2498696199999983
  6.5587829199999996 18.4644979099999986 22.8163984900000010
 15.2093767399999997 18.9948283899999986 11.0807108400000001
 33.5071580400000002  4.8051520999999999 15.1914143700000004
 32.1013606100000004  2.5677219899999999  0.7034188800000000
 27.3611021399999998 28.0437096600000011 20.6282472800000001
 23.9519952600000003 26.1843827800000000 25.9214473400000003
 16.7653712100000014 25.5938923500000008  6.5487287700000003
 24.4844591999999999 15.3057537499999992 28.8032517199999987
 11.2517040200000000  2.3895124000000001 15.5348418099999996
 29.0863342699999983  9.0200680599999998 15.2838556400000005
 10.7617805400000002 28.2455964100000010 18.7389001499999992
 14.6947827699999998 15.2140561499999993 27.6416608900000007
 18.3945610600000009  2.3876564299999998 19.3415949100000013
 29.1856435800000007 33.1116081999999992  6.7990536300000004
 31.6943163599999984 21.3750159999999987  9.8938387199999998
  0.7473493900000000 30.7011694000000013 24.5540253700000015
 29.5043928199999996  0.3301600600000000 19.0002087000000017
 31.5075986999999991 33.2112766400000012  1.9264854000000000
  3.4401750600000001 34.0221616700000027 15.4712509600000008
 10.3149611599999993  8.5522118900000006 27.0252786399999998
 18.8580240699999990 21.8105831700000010 15.4713843000000004
 12.5559246000000009 12.4247798700000001 13.2752093500000008
 26.4435483699999985  6.7175075900000003 26.1500015499999989
  8.0761083800000009  5.1534843600000002 24.6115745799999992
 16.7339075900000012 21.7848656500000004  3.2368976300000001
 12.5384874600000007 34.3587522400000012  2.5488450500000002
 33.4387662099999972 10.3437553999999992  2.4970463999999999
  2.8588463599999998 28.6308321100000001 18.3953414299999984
 15.5033599599999992 24.9707878100000009 34.0307642900000005
 20.0554401400000017 21.7823622499999985 31.1623364900000013
  5.3894298000000003  0.1466317400000000 14.4396245899999993
 31.7704383899999989  5.7580555899999997  0.6402773200000000
 16.1409622800000001 31.1530544899999988 24.3867635400000005
 18.3347744699999993 12.5545504900000005 24.3300642099999997
 10.3892445000000002 32.0323628800000009 32.9229666600000002
 21.3006305400000002 19.6975606100000000 26.9011662700000009
 32.9015386100000029 11.1593704200000001 25.5386273000000017
 22.7089639699999992 29.5573977100000000 16.1833894500000000
  9.2264712200000005 19.3018378499999983 25.9887455699999990
 27.8468136299999998  1.3966286800000001 23.1382542600000001
 34.6392814700000002 27.4036220300000011  7.6754739100000000
 26.6900077200000005 18.9596952300000012 15.5976638600000008
 34.9364891299999982 17.5727666800000009 15.4895684800000009
  3.1774833800000000 28.9631507200000016  3.6741761099999999
 11.8779400699999993 27.5387535899999989  3.8315222699999998
 31.3947688700000000 26.8804006800000010 33.8941496500000028
 33.9732274500000031 33.0338328699999977 29.6289986899999995
 29.5810316700000016 28.3992955800000004 11.9608179999999997
 20.4680497499999987 26.5120769699999990  3.4776654699999998
 34.1235029400000016  3.7138577499999998 13.8071227800000003
  6.3126247299999996 11.2838580600000000 17.8024620099999993
 25.9790191800000017  4.3753649200000000  1.7581685100000000
  9.5381562199999994  7.7915114200000000 16.9324761399999986
 34.1264547099999973 18.3243124500000008 11.7193166800000004
 21.5554069900000016 31.7253556400000001 18.0521854499999996
 23.0808465200000015 14.7874176800000008 32.1289543399999999
 28.4472085099999994 12.2334039000000008 16.8193676799999992
 23.1125924400000002 23.3410633499999989 13.2517804600000009
 17.6741404700000011  4.2789254200000002 25.8995246799999990
 33.3113721100000006  4.2309717100000004 24.9415836199999994
 33.1959464700000026 24.2723916300000013 21.0861331999999990
 19.6406887700000006 16.0561621499999987  5.9172886599999996
 16.8705326599999985  8.0423890000000000 33.4318814200000034
 34.6310424300000008 28.9301054499999992  8.2822992400000004
  5.6033465500000004 25.4455472500000006 33.3126828700000033
 26.2609489600000003 17.7691605300000006 26.2810739399999989
  6.0097350299999999 30.6166904700000018  4.7167325299999998
 34.1236673399999972  6.4769182799999996  7.5655377899999996
 33.9935990800000027 25.4196829800000010 18.6117941900000012
 13.4249563799999994 23.2418963599999984 26.5521352899999989
 11.7377547999999994 16.4449588499999990 30.4234235499999990
 11.4795314400000006 16.4849306899999988  2.2300778499999998
 30.9183512900000004 34.7301116499999978 13.9864870000000003
 10.8869974299999992 32.7658384400000031  5.4466990800000001
 17.6715202900000001 30.2414326100000004 32.7578228400000029
 10.7283918699999994 27.0821635299999990 29.9224404499999999
 26.4567237099999986 18.1554298000000003  8.3086113699999995
 27.8313632599999998 21.7223533400000015  2.5926479499999999
 34.6340169699999976  8.9232304800000009 32.7346444000000005
  6.1683575399999997  1.5852452200000000  8.2164795700000006
 19.3721918100000003 18.4277231000000015 34.7421910500000024
  7.0050100300000002 28.2035233699999992 11.6172807099999993
 21.6368355699999988  0.2955079300000000 31.6017228999999986
  5.1567037899999999  8.7206654599999993 23.2244151199999997
 12.7448722199999995  3.0674754599999998  0.0601116000000000
 30.2956768899999993 34.4415209800000000 28.6431315399999988
 15.1118239299999999 24.4247835400000000 27.3369672299999991
  7.4082346100000001 15.1991050300000001 21.3581925599999991
  7.1423788000000004 26.9604236700000008 13.8406411299999998
  9.6553883999999996 18.1128041000000017 26.8985394999999983
 23.7533809299999987 13.0733442300000000 28.6963912199999989
  0.2472903900000000 26.2095175400000002 28.3612720100000004
  2.8986361199999999 32.3772195100000033 18.9282415300000011
 11.9554562200000003  0.3526122600000000 11.3542375300000007
 10.6701289199999998 27.8567421499999988 28.2652694999999987
 34.3844137299999986 13.8415847099999993 25.5141560900000002
 31.4213632999999994 18.8530363500000000  7.9819507200000004
 32.6456934400000023 16.1696274899999999 22.9292411999999999
 21.7569257399999998 23.6508288799999988  4.4810034099999996
 27.2243891500000004  5.3083721300000004  2.8104173499999998
 19.6844768200000004 17.0018691299999993 10.4143887900000003
 34.6324324699999977 17.2924438000000009 29.1029296399999993
  7.9385244999999998  2.7813493000000000 21.1377371899999993
 11.9488732199999994 29.7121300700000006 26.7701032199999993
  0.1248697900000000 33.6865055199999972  9.0982059599999996
 33.5475999499999986 19.5122913800000006 28.0812311000000001
 21.2511377900000014 27.8728039000000010 18.2152154800000012
 33.1266515499999983 14.6326517799999998 20.9785071899999984
 30.7703893099999988 32.9331719199999995 17.8204826099999991
 13.8512135700000005 12.3464500200000007 26.7854747700000004
 13.4744538600000006 15.1460907099999993  5.3466357300000000
 15.9066621399999999 13.2705165100000002 17.5710033800000005
 20.8538473300000007  0.6120110600000001 31.0698608999999983
 26.1521281799999983  8.8183932800000004 20.7358443200000018
 12.3355336799999993 18.3146394500000014 24.1452394699999999
 19.0397353199999984 30.8315004799999990 10.0285417500000005
 24.7011423000000008 17.0987028599999995 27.8989542300000011
  2.7237254000000002 32.6528336599999989 31.1752605299999992
 12.6037344400000002 10.9648032799999999 10.4486770900000003
 15.9158629099999995 27.9079509200000011 13.9310969500000006
 24.9465177199999992 11.1233725099999994 15.5217778099999997
 19.5195795499999996 10.5735364500000006 14.4270577600000003
 30.5597024700000013 26.9194797299999991 25.6958540199999987
  5.2184855800000003 32.0871418400000010  8.5929802500000001
 12.2190940799999996 21.3142185700000013  3.0714851799999998
 32.4514511499999969  6.5395090099999997  9.5279045799999995
 10.4923486399999994 14.9035688200000003 24.2812133900000013
 29.3534900100000016 19.1065679199999998 34.0869649600000031
 19.6200243199999989 18.7487388700000004  5.0541082700000004
 34.3977722099999994 28.3575788200000005 10.8271536699999995
  6.9718108799999996 30.2255401699999986 10.6536621000000000
 31.0989897299999996 25.7203264000000011 31.5258086900000016
 24.2667293300000004 30.9198309199999990 24.5982043099999999
  2.0198672100000001 32.9081390999999996 17.0937719000000001
 15.0243953200000000 25.0120981299999983 28.3333387300000012
 23.4240540000000017  8.0755275599999994 30.3916931099999985
  3.1861125499999998 33.9935603400000019 24.7685681899999999
 30.3255096199999983 10.8401763700000000 15.8441709900000003
 12.9818187799999993 30.4282482399999985 22.5681128899999983
  7.2733036899999997 22.4150478600000014 24.7094528900000014
 16.7747410799999983  8.0732771000000003 27.5681418299999983
  7.7597516700000000  8.1462699000000001 29.3582539199999992
 29.1736907800000012  7.2209184500000001 16.9763680500000014
  1.8178724799999999 32.9827468499999981 11.0263586999999994
 30.0106379799999985  3.7925448300000002  6.3009739400000004
 25.4689600899999995  6.8122766900000000  8.9342848900000007
  8.5261547300000000  9.0825121499999995 14.7817378900000005
  6.6687327600000001 11.3915496500000000  7.7750273200000004
 19.8840914899999994 11.9257489200000002 26.0620677000000001
  0.1718123200000000 17.6497205199999989 13.8528123500000007
  4.2171931799999998  3.3657739900000001  8.5634654000000001
  6.1630314100000003 17.0688771700000004 16.6186335499999984
  9.3740426800000005 14.5353103899999994 29.9617905200000010
 22.8132184600000016 31.7626314799999996 14.5473314200000008
 21.9991216300000012 34.2372448899999995 25.3748301599999984
 34.7704286600000003 26.5945549099999994 24.6843452200000009
 14.7901763000000006  8.4931484699999995 14.3464067600000007
  5.0584128899999996  1.7454731500000000  6.1672641199999996
 18.2080301700000007 17.3630737800000006 26.1810658200000006
  5.1732016700000001  6.0005149800000002 15.6552052400000008
 22.0345208899999996 34.1926314500000004 10.5568445400000002
 13.8861558299999999  4.6210377899999999  0.7822054500000000
 21.5269788200000001  8.9331039299999997 23.6776996500000010
  1.0980022700000001  9.1241190700000008 14.0691617000000004
  0.4007486500000000 15.3825806499999995 25.0329099399999997
 28.1172991699999990 32.4472254699999993  5.5184167899999998
 33.0309984900000018 16.9916108100000010 13.0029176100000008
  0.0362653000000000 14.5108289799999994  3.5027140999999999
  0.1159188800000000 23.2485834599999990 33.9421631900000023
  0.9367395700000000 28.7819680700000013  3.5374010000000000
 23.0986822799999985 34.5530521900000025 13.1481028400000000
 25.1644086000000016 33.2153799100000029  0.8901425400000000
 15.6256451300000005 15.2177742600000006 20.1319714800000007
 13.0447021599999999  2.3091750599999998 30.3051989000000006
 19.4779762199999986 11.3463756799999995 18.5360105699999984
 34.7296523799999974  6.2676129200000004 24.7703744099999987
 25.6827437600000010 29.8743376000000005 22.9921139699999983
 28.4595287299999988  9.2994120599999999 20.2184097399999985
 30.8124610799999985  5.0334253699999998  1.7802681800000000
 30.9672322000000015 16.2715278599999991 20.5687739000000001
  4.3828661599999998 22.8314682399999995 23.4867300300000004
 11.4716069399999991 23.2978526200000005 22.0089712999999989
 24.7806466000000007 23.3273233500000003 27.3235246200000006
 26.4782503700000014 29.9539236100000004 30.5941839999999985
 11.4505403700000006 19.2319290299999999  6.0311509399999998
  5.5538780200000000 34.0278400099999985  5.9070934099999999
 20.5188692699999997  5.6358032400000004 10.9449716499999994
 27.1384413000000002 30.7829539899999993 34.1077500099999966
 18.9544772399999992 32.8990483299999994  4.3053172300000000
 14.4667505700000003 32.6767963100000003 13.9156441900000001
 10.2319757199999994 13.8158461999999993 12.9271306199999998
 21.2842592500000016 24.5452704500000003 22.3603939300000008
 16.1407020500000016 26.7793271600000011 15.1515486700000004
 27.0784923900000010  3.2215757300000001  0.0232726100000000
  6.1427609800000003 26.3838144999999997 17.7702683800000010
  9.9007107800000007 11.2461285600000007 13.6826714500000008
 14.6590902900000000 10.3305222499999996 25.0875195799999986
  0.9415275100000000  4.2528533299999998  7.7058448000000004
 12.1335980499999998 19.3824917300000017 16.5385195100000004
 27.8974177499999989 11.9001895799999993 16.4862769299999989
 24.8563852999999995  1.2676957700000000 26.1627637700000015
 12.5706323100000006 14.6172093200000006  6.4370844700000003
  3.0787367300000001 14.3282516900000001 14.9260804599999997
 17.6342391300000010 33.6569877700000006  2.9933850099999999
 14.8218384200000006 15.6382824700000000 17.6135007500000000
  0.1070501000000000 14.1909590100000003 17.4481262900000011
 20.6585281199999997  7.8821614400000000  0.4873971000000000
  1.6831235200000001  8.2570391399999998  1.0567806700000000
 16.3127810300000000 13.9107006400000000 32.1456743800000027
 12.3493607200000000  5.7056437000000004 29.7537335300000017
 25.9994553800000006 32.8464976500000034 31.0860458199999989
 18.1721097100000009  8.6479060299999997 25.3566053700000005
  8.4665278799999992 21.9341247899999985 26.8353628899999990
 11.9440328600000001 18.3603086900000001 21.7082260299999987
 10.1548877399999995 13.1982166700000008 27.4275461800000002
 24.7685777000000016 30.4854806099999998  4.4725660100000004
 25.4169566600000003  7.7905153000000000  0.1905809400000000
 18.0938814299999997 23.8652591100000002  3.4098606500000002
 14.5279881900000003 11.8975341100000005  6.8557409900000001
  4.4387869000000002 17.6914261999999987 14.8002090800000001
  2.1140742299999999  6.2456425500000003  5.5143289900000001
 34.3272942099999980 33.8337739099999979 34.2380817299999975
  4.4396766200000002 32.6448786300000009  2.4751248200000000
 19.4229261700000002 31.1202020899999994 32.2364905499999992
 33.6966519799999986  4.6297441199999998  7.1093661900000003
 32.1174883400000013 28.6265079699999987 15.7194808199999994
 17.3142178099999988 10.0587516800000003  7.4394698400000001
 15.1696498000000002 16.3041399399999989  8.6800533699999995
  5.6569726700000000 16.7396228100000002 12.8405956600000000
  1.8913156200000001  7.3416232600000004 15.6621442399999999
 33.6583015100000011 25.0734901500000014 10.1489483800000002
 18.3754986000000002 32.0049391200000031 27.0117629900000011
  1.7005912100000000 21.8363983300000015 29.3466692800000004
  9.4706459600000006 28.1466056800000004  0.0017314000000000
 29.0996539900000002 22.8846734500000011  7.7067460700000003
 27.2812618299999983 16.1676202400000015 24.1934417199999992
 24.1750009699999993 29.2413475200000015 24.3278434300000015
  8.0645068700000007 20.1669293100000004  5.5808863300000002
 32.9564744199999993 24.4656182300000005 13.6456489800000007
 22.4223500999999992  7.4381537199999999 28.0495519100000017
 13.8189325699999994 29.7996408300000013 27.5633601699999993
 32.3943267399999968 26.4495213299999996  2.1050547300000000
 29.6547789000000002  7.8690259100000004 24.7183946699999986
 27.0592663000000009 30.0886722599999992 20.3146871800000000
  3.9474892800000001 20.4522467200000015  5.9106573999999998
 10.4189646899999993  6.5395804799999997 10.7290566100000007
  3.2543839100000000 26.4303927099999996 30.6102103399999983
  0.8052518400000001 23.8676896200000002  9.2594384699999992
 13.3824456800000000  8.7646246399999992 27.0463127900000018
 22.3791149699999998 15.7852819400000008  3.2336482700000002
 27.9264740899999993 10.2499786299999993  1.3908342199999999
 30.7507109800000009 17.1994551599999994  6.2428083000000001
 27.8791324899999999 19.5797608300000014  7.0402338400000000
 25.2101296599999998 31.6491674500000002 32.5572927099999987
  0.4185353500000000 34.3237071499999971  8.5460775499999997
 28.9253466999999986 33.3020099499999986 21.8811525099999997
