Na Cl 
 1.0000000000000000
    35.0000000000000000    0.0000000000000000    0.0000000000000000
     0.0000000000000000   35.0000000000000000    0.0000000000000000
     0.0000000000000000    0.0000000000000000   35.0000000000000000
 Na  Cl 
 800 800
Cartesian
 28.5297430600000013 34.3916918999999979 31.1657013700000007
 26.9430088599999991  1.1498879000000000  6.1659655600000001
 31.3832211900000004  7.7986130500000002 31.2894596900000010
  6.9490666399999999 32.9630864700000004 30.5942310699999993
 12.2416297699999994 15.0715545399999993 12.6171184200000006
 25.9092128399999986 21.1401976299999994 18.3016474500000008
 15.7886762300000001 25.2813842800000010  4.2256736100000003
  5.8963630000000000 15.1729466700000000  1.7146386400000000
 12.9316622799999994 27.4479804499999993 18.2073875299999983
  6.5622928900000002  7.4565388400000003 22.0483064199999994
 20.8859540199999998 15.2292145800000007  2.4094288100000001
  0.2700246500000000 23.3043304099999986 25.8812810099999986
  6.6899946500000000 18.7401655699999985  0.9627064400000001
 10.2072015599999997 17.4365662300000004  1.3685590700000001
  6.3723068800000000 34.3616659099999993 16.5188679600000015
 12.6137563499999992  4.4030224499999999 11.5982486799999993
 16.7655323600000017 28.3024422199999997 29.1464493599999983
  4.3743644599999998 19.9434098199999994 28.8887753300000014
 13.6469084499999997  8.5902919099999995  2.0360556000000001
 24.9864661999999988 17.5374952600000000 17.6828333300000011
 10.3798258200000006 13.7325789799999995 13.4549114900000006
  1.6974389800000000  3.8569655799999998  4.0205023400000002
 22.5828450099999998  9.8760696800000005 17.1031553299999999
 32.7316839400000035 26.4119019199999983 34.8356135200000026
  2.1564117600000001 17.8124831999999991 19.4051857400000003
 12.9567427599999991 28.9756417800000001  3.6114443600000001
  7.5453182099999996  9.1631759299999995  5.4977830499999998
  1.2396459900000001  9.7301805899999998 15.1451027000000007
 23.7411541499999998 17.5777361899999995 29.0122290300000003
 23.5333467799999987 24.9593766200000005 17.2428072300000004
 34.8610770599999995 10.1220835800000000 21.8587555299999998
 20.1042753099999985  2.5551507400000002 34.4184498500000018
 25.8866057500000011 26.1828053400000016 34.4092692799999966
 11.5888357699999993 33.5627171799999999 28.5875821499999994
 26.4931997899999985  1.2089039600000000 18.0488174199999989
  1.4744003299999999  0.2464026100000000 11.2886619400000008
 28.5412438799999997 17.6859511199999986 27.7804594300000005
  6.1816237899999997 14.5511095099999999 15.4974685799999996
 30.9544988299999986 12.2618475100000008  4.8710243999999996
  2.3070662400000002 29.8623117600000008 30.8737016699999991
 19.3040171399999991 27.6160754399999995  8.3799457600000000
  1.7484482200000000 21.1691546799999983 14.9826980499999998
 24.2060456299999984 26.0089115399999997 16.7763042800000015
 34.3460465100000008 34.0037379700000031 20.8241208899999997
 25.9998809900000012  4.9997208899999999 30.3090307900000013
 13.8805427500000000 15.2819827400000001 14.2839277199999994
  4.9732398900000003  5.2428986699999998 22.3979333599999997
 17.0660034699999983  3.3202696500000002 13.7720309899999993
 11.5247941300000001  7.2149099100000003 20.9908471699999986
 28.1683920500000013 16.1651870100000004 18.2981187699999985
 26.4821717800000016 25.8611487599999990 18.3272505300000006
 26.0996761200000016  2.2566294800000000 22.1716653699999995
 29.1798044700000005  4.9737900399999999 14.4891669699999994
 24.4292903999999993 33.0837777300000013 29.0523773100000007
 33.3054906599999967 10.3815017899999997  6.9006211100000003
 23.7389733199999995 15.9246575700000008  0.7197739000000000
 22.2400172299999994 22.9695421700000004 34.0951795599999983
 17.6829304399999998 12.0118586000000001  3.3075404700000002
  9.8327488200000008 24.0094489799999984 11.8089831400000005
 23.5796273399999983 32.7966642199999967 33.5354782300000025
 25.7826644400000013 29.2412744800000013 23.1001208799999986
 23.7316808500000000 33.3600365699999983 17.1346914900000016
  2.7599415800000000 11.3380589500000006 18.7567034100000001
 33.9142149700000033 21.2109701299999998 17.7749656700000003
 18.8480367300000005 28.9533545299999986 14.0295155200000004
 34.0673482999999990  4.9228319000000003 33.0357262400000025
 26.4508987100000006 25.2545549600000001  8.3052607500000004
  6.5174667599999996 24.0638590599999986 16.2792991899999997
 11.1815243199999994 12.8793187699999994 22.7105433199999993
 21.1016247499999992  0.0071673400000000 15.4614407899999993
 20.4352747000000008  0.6618421799999999 28.5815314299999983
 29.7987663800000000 12.8665735199999993 18.5011731499999996
  9.2172107800000003  3.6615716200000001 10.0341682700000003
 14.2661837699999996 21.7506132200000017 22.5563715400000007
 19.9364899499999986 17.5865802199999983  2.6537645599999999
 11.8208770500000000 13.4806335700000002 14.0083501500000001
 28.3409039400000005 10.5725011999999996 32.0277475400000000
 25.3529251699999989 16.6133620099999995 25.7753164199999993
 10.7431241499999999 29.6876687600000011  0.6487737700000000
 18.9408175199999995 13.3201368200000001 11.5394808900000001
  9.0553484100000006 13.2407005499999997  6.4542146899999997
 10.9862478499999998 20.8676950599999991 23.3508974299999998
  3.5330379299999999 19.7684198100000010 27.8317544499999983
 28.2970513699999984  8.5423333699999997  0.9970333500000000
 27.1395554099999998 14.5077772399999994 22.2120161799999991
  7.3559885300000003 12.0991791400000004  0.9038429700000000
  0.8888161100000000 28.3324279600000004  8.1166931499999997
 22.2618319800000002  4.6101715099999998 28.1525874300000005
 30.5369230000000016 29.0648046600000001 32.1719941899999995
 34.7063951299999971  0.3828873300000000 30.1874349899999999
  0.2199481500000000 21.6684763400000016  7.0818028899999996
 23.8612305199999994  5.7013183600000001 27.0576026300000017
  2.1274419400000002 20.9166770299999989  6.5909096900000002
 33.4191744700000015 31.0653911299999983 21.0287662600000012
  0.4744540600000000 29.1494247500000014 19.3817334800000012
  3.7945293900000001  4.6554727099999997 19.5298465199999995
  8.1304607000000004  8.6530175699999994  6.2662302800000003
  1.5323970700000000 29.9975669499999995 29.1077293300000015
 18.6069081899999986  1.3058768900000000  2.8729585499999999
 20.8143918499999998  2.4837828399999999 24.9381793599999995
 10.9805696299999997 30.4337700799999986 10.3737474100000000
 16.5727505199999996  8.2180091199999996 10.0793103899999998
  2.9696812000000001  1.4318986300000001 20.9203363399999986
 33.0929063700000015  7.4774288599999998 23.1468229699999988
  3.6537109600000002 17.9200462999999992  7.2181427100000004
  5.3245548500000002 29.7934192899999992 27.9979405899999989
 21.3874828100000016  9.4235096499999997  5.9267210300000004
  0.4004118200000000  9.7214155699999996  7.8315455199999997
 24.7855160099999985  0.1675493000000000 16.0010708800000003
 24.9983639999999987  7.5036951399999996  9.6042945000000000
 34.3775854100000018  4.0780146600000000  9.1924721999999992
  7.8802653800000000  3.6202998100000001 16.3788736999999998
  4.7303382899999997 17.7956200500000001 15.9861756499999998
 19.6541773800000001 32.7591568899999999 33.1498049699999981
 18.7722144200000010 14.6077575100000008 22.5804152699999996
  4.0393662399999997 24.6283593399999994 18.8353484100000017
 25.7007971300000015 18.2973909900000002 14.2504175300000000
  1.7674376900000000 25.3252451399999998  6.3949942899999996
 30.6689503700000010  8.0489450599999994  3.6195690200000001
  4.0964437100000000  3.9294489900000000 32.2491534400000006
  1.5218896099999999 28.3986360299999987  0.8757051000000000
 17.9756795300000007 32.2458263700000032 15.6038117300000003
 33.2637770899999978  9.3015263600000004 20.7536089100000005
 30.9049467799999995 19.4405591999999992 12.4785093400000004
  6.3065040899999998 13.4142953100000000 19.0612418800000007
  7.2922473300000004 25.8008670600000016 20.1726400800000008
 31.5618353899999988 34.7673266999999981  9.4599004600000001
 22.5470304500000012  2.9408530900000001  6.9178522899999999
 33.3434369599999982 18.1450150900000011  8.2685758099999997
 19.9536703300000013 26.3372260999999988  4.7591245899999999
 11.6070540900000001 24.7581444799999986 30.1342685999999986
 16.6524165099999983 17.1642189400000014  9.0277466700000009
  4.3382585599999999  8.1115470300000005  5.7709426300000004
  7.2327769300000000  6.2818658500000000 19.3192586000000013
  3.7792067399999998 27.1276574100000012 24.5380163499999995
  5.4408614200000001 24.5578073400000001 23.0679334300000001
  7.7571892399999998  0.0795599300000000  7.1637933499999997
  1.8748756200000001 11.0344740500000000 26.4053534899999995
 29.7761218499999991 17.2799802699999994 29.6283172199999996
 18.1274924499999983 28.7655485199999994  7.5740250600000003
  1.6392357099999999  5.6346499500000000 26.5616376900000013
 31.4446807700000015 25.7496332199999998 34.0855191599999969
 30.3205956500000013 33.2510451400000022  5.3156772999999999
 20.5884243100000006 19.6473529499999984 23.0610544200000014
 32.1417189100000016 15.8696366599999994 20.9833745000000000
  7.5752792099999997 22.7176047200000006 34.7825665299999969
 20.5956394600000010  0.9124836000000000  6.1117935399999999
 30.9140972900000008 33.2332153099999985 20.6497507400000018
  0.3606967600000000  7.2304169399999996  1.6175525200000000
 26.2051264400000008 24.5601360299999989 27.2063147500000007
 16.5319581699999993 22.6209791299999985 20.7962707599999987
 12.9225797000000000 14.7970350899999996 18.7686804599999988
 25.2125020299999996  1.5216622000000000 24.5765894699999983
 23.7391764499999987 19.3385589700000011 13.1606508899999994
 26.0595853099999992 28.4503378299999987 29.8279749400000007
 13.7748026800000005 23.1086744400000015 27.4913620200000004
 12.3214567800000001 26.7241228500000005 32.3326946000000035
  5.5982052400000004  9.0354651599999993 29.0629508600000008
  1.0151790400000000 17.1141082400000002  6.8172022999999999
 21.7189970800000012 16.1839741100000012 19.0529082800000005
  7.2294299400000002 20.0290541600000012 33.3132007700000017
 34.9653977199999986 13.4394444199999992 21.7423926499999993
 24.3932096300000012 21.6743041000000005  0.0289707000000000
 31.9105980100000011 16.4206956400000017  7.6316272400000003
 24.7589999899999995  9.5127568100000008  0.9037263100000000
 33.9280758199999966  9.1703644499999992 21.3153236300000017
 21.6442812000000018 20.4341826399999995 17.3076366499999992
  4.4492227800000004 18.0872876399999996 18.0434399499999998
 16.0951750699999998 31.6074137999999998 30.8037408100000007
 33.4717866100000023  5.3176258900000004 18.3383751900000007
  3.0717942599999999  2.6461254799999998 23.4310111499999998
 20.0044583200000012  4.9309115099999996 28.8297287799999999
  1.2515468000000001 34.7470562099999967 18.7737420899999989
  5.2833749499999998  2.6827760800000000  9.4176519800000005
 12.4769046600000006 14.3366008300000001 15.2502203099999996
  5.4527981299999997 15.1781351699999991 18.9177275999999992
 10.2477778900000001 34.4030217800000031 11.5870569700000008
  3.6664953200000001 22.7868314800000000  8.2767607099999996
 17.5172149600000004 26.8317733700000005 21.6149741400000011
 17.8703633300000000 12.1964315600000006 25.4252144000000015
  6.5784953899999996 34.7720831999999973 19.4023883899999987
  0.9417077700000001  7.2824408700000003  0.9836350200000000
 11.9538197499999992  7.8485592999999998 30.7361217599999996
 16.9984453600000016 22.8711262099999999 25.0181766600000017
 25.4950846499999990 25.8877144600000015  9.8169600900000002
  3.6482598099999999 31.3026894200000001 19.3010696499999987
 13.0776624699999999 31.2730917300000009 11.8526567600000003
 22.6021214599999993 18.8553949900000006 12.6235284399999994
 28.6425510299999999  5.3552372200000002 20.4719506299999985
 22.0741592400000002  0.3942748800000000 11.5779298900000001
 25.2677403699999985 19.9124673299999984 33.8384341200000023
  7.5622330299999998 13.4505216799999996 32.9179429200000015
  6.8666284299999996 12.4239568699999996 34.4431973800000009
 21.8182956700000013  5.0952729699999999 26.2528453299999995
 21.5713956099999997 20.4459355400000007  4.8386617400000000
 18.3879032000000002 30.4890462500000012 29.4003276500000013
  1.3068149800000000 18.6394142199999990 22.6347398999999996
  7.0735044000000000 24.3884431100000008 11.5633535700000003
 25.2834036100000006  3.1644499800000001 19.9108232600000008
  6.2064591499999997 11.9589700600000004 24.4098468400000002
 21.2959206899999991 10.5390400900000003 29.6467272599999987
 12.5450751100000009  5.0773024600000003  4.2224160800000003
 21.1471142400000005 29.5490579699999998 16.0173031200000011
 17.8135437699999990  2.2301721799999998 32.5038171699999978
 11.6552336899999993 29.5126572699999983 34.2307224799999972
 20.7527934000000016 17.1986654299999984 27.9698730200000014
  4.6557757899999999 24.6237172199999996 10.8152515600000001
 16.9330214300000002  8.2910939799999994 13.4165391599999992
 21.7735804500000008 23.5666386900000013 24.4965291000000001
  8.1645797099999999 22.0912106000000001  6.9765468999999998
  4.8237069899999998 12.0433500599999999  7.5844275300000001
  1.4735551600000001 21.0415815399999993  5.8608710400000001
 13.6594865100000007  9.9897607199999996  2.9083925300000000
 21.3532342399999990 28.8079032899999987 19.4306761700000017
 21.3743874100000006 34.3291793799999994 30.5178906900000015
 24.1888447599999985 16.9139445399999993  2.6659548800000001
  6.7037195000000001  4.4136730899999996 15.6035924900000005
 29.5789659100000009 28.6801127999999999  6.6558130400000000
  4.2498345799999999 26.9698408000000001 32.1144023499999989
 11.7602979899999998 10.3282993699999999 22.7274458800000012
 25.1829804700000004 30.3527432799999985 13.5563430500000006
 26.4575787600000005 32.5262481600000015  3.6528887999999999
  4.1020043900000003 27.3878418400000001 22.4578203599999995
  8.5867485400000003 12.4827466000000005  7.5220815900000000
  3.6252367599999999 29.3542362499999996 31.6486768400000003
 24.3116648499999997 16.1510813599999992 26.2244021300000014
 33.5265869600000030 16.3470263600000010 29.4720702599999989
 17.0848474099999983  5.0305023200000001 22.6524656700000016
 24.9904330899999998 14.2089653699999996  5.0809120400000003
 29.8886739299999995 18.9426617600000000  9.3161592100000004
 21.6879103800000017 18.7096889500000003 13.7421781000000003
 34.7872960899999981 30.0853327999999998 34.1884278899999998
  9.9074657300000002 19.7764975900000017 23.5950776200000014
 12.4695699399999995 31.0619716200000013 33.5569975499999984
  2.4578929399999998  9.8066838500000006  5.9354734100000002
  7.5016787400000000 10.7145503299999998  4.4473678699999999
 21.9118457299999996  2.3912172799999998  9.1888232100000007
 16.5516619100000000  3.7817417400000002 34.7333550900000034
 33.4990663499999997  8.8081726800000002 23.9582307900000018
 25.9848282300000015 32.0080692100000022  9.6192084100000006
  5.0356877000000004  4.8032353399999996 17.9764349599999989
  9.9424278200000007 12.3844495699999992  0.4438942600000000
  5.5307937999999996 31.0513541099999983 30.1085390500000010
  4.2157747199999998 14.5257140600000003  8.6762467399999998
 11.6789866700000005  8.7290225100000001 23.6814075899999992
 28.4173849599999997  0.9889671200000000 31.5704435900000000
  4.4454714400000004 25.0384482099999985 16.1990480099999985
 27.3998379900000018 14.0771450900000001 29.5775102399999987
  4.2146868299999998 31.2416328000000014  8.1225198499999998
 15.1911947999999999 28.4110709700000008 34.8698567200000014
 17.6818974799999999 29.6508976000000004 12.6359250700000008
 26.9927098600000015 31.4745578100000003  2.8930850299999999
  9.0801672599999996 10.3710771899999994  6.6943143300000001
 21.3409712899999988 32.7044603000000009 23.8641978399999992
 20.5730955299999998  7.0165426300000000 12.0319322900000003
 25.6860795300000007 15.9386903199999992 26.5682333100000001
  2.2971792999999998  3.6924483200000000  3.9789565599999999
 24.3229060799999992 30.0825701700000003 22.7568487200000007
 29.3563708800000001 32.5254578999999993 25.3709140499999997
  3.9525023899999998 34.7076510899999988 21.4919357099999999
 14.9634810999999992 16.2268129200000004  4.0447963099999997
 10.8915338700000000  4.0098190499999999 18.0288335800000006
 15.6059983599999992  0.0143722700000000 31.5548217599999994
 21.8892530200000017  7.6754249999999997 25.8679650199999998
 27.8881176099999983 30.5926471000000006 20.6198825499999998
 23.3659850899999988 12.1114325100000002 31.8462192900000005
 19.4076144600000013 18.7761890600000001 11.4096149199999992
 31.3980444399999996 11.9328821099999995  5.9496399599999998
  0.5987714200000001 18.5513127500000010 11.9134205000000009
 28.8582763100000008 26.0500100100000012  7.5181546299999997
  7.6248778200000000 16.3214908200000011 20.2962069599999992
  8.3503945000000002 30.0804417300000004 21.9841583699999994
 27.7497039799999996 14.2748220600000000 26.9344196700000005
 31.7914112200000005  8.2483745200000005 30.4305887000000013
 26.9042665499999991 15.0079789899999998 29.1029589299999998
  8.4307639999999999 15.8505345700000007 14.9344766399999997
 18.7489205400000003  8.1075271099999995  8.2081273299999999
 18.9960066000000012 30.8828729499999994 33.4456510600000030
 21.0572901399999992 24.8754551100000008  6.7739523200000002
 29.8165815300000006 32.2856955299999981 20.6847516099999993
 28.6203113699999996 16.5731633199999990 15.1559289400000008
 30.6977435400000012  1.9757006500000001 25.6008461300000008
 18.4209574799999984 26.0324024999999999 26.5888106800000017
 33.1410324000000003 11.3315570000000001 14.4784399199999996
 19.1397959200000010 32.5500656500000005 18.9534409799999999
 15.4824809699999992 24.0577170799999998 18.0508974100000010
  1.4327178300000001 34.6885242800000029 15.0274967700000008
  7.1382609700000001 27.7521533600000012 20.4416026299999984
  2.0154306100000001 28.3422103199999995 32.5287931800000010
 11.4270490799999997  9.4139441700000006 20.1597133500000005
 24.3023334599999998 34.3184286400000005 24.8301122800000016
 14.6970940799999994 19.0601616999999983 24.1377316099999994
 32.8552228799999995  2.7309571500000001 14.1968178399999996
 10.9173911900000000 18.5937426399999985 25.0325823599999993
 22.6117223199999984  5.2170893300000003  8.6204388600000001
 18.7159449600000016 13.8869446599999993 17.8789073199999997
 15.7953199699999995 31.9427772099999991 32.2565822500000010
 21.3778758599999996 22.9596420499999994  7.7039864099999997
 15.8995366400000009 33.5122358699999978 20.1483044100000015
  7.5521777600000002 19.4515822900000011 22.7435398100000015
 15.6736503099999993 17.0407639199999998 34.1191205800000006
  0.0595444600000000 20.7637069799999985 25.6232077700000005
  9.2530705500000003 11.3566503999999995 16.2233221400000005
 15.3751626600000009  5.3588085000000003 10.4944895999999996
 15.8866319800000007 26.6236255799999988 23.2751864499999996
 26.0586084000000007 12.0313977600000008 16.7022293899999994
 14.3693697199999999  5.9969122400000003 25.1039950300000001
 32.8444590800000000 31.8237664799999997 27.0431765599999991
  4.6684006100000000 26.8090708999999983 25.0545848900000010
  7.4082176799999999 14.9144991099999995 32.9865267400000022
  4.5548371699999999  8.1483762700000000 29.7600526300000006
 27.2045775799999987 22.3353354599999996 14.9831105800000000
 31.1395826800000002  7.9661833399999997 12.6433432999999997
 11.6709201300000007 13.1547061599999999 31.1464726799999987
 18.7662777200000015 19.8296888699999982  7.5808895600000001
 12.0109146500000001 22.4424725599999988 30.6362701699999995
 18.7926677600000005  8.3670571599999999 30.1296520100000009
  9.0612829500000007  7.9826113599999999  8.7491591700000004
 12.1181108999999996  4.0899723500000000  0.1653388300000000
 13.8497264599999994 22.3526267300000008 25.5975280400000003
 32.6538111400000020 12.6037879000000004 11.8632704699999998
 25.9867559300000011 29.4068508999999985  5.9430957299999996
 30.6099518699999997 31.4611081900000009 21.8453139299999997
  4.1912742900000000 22.7469695999999999  3.3179904499999999
 10.4655535900000007 19.5592158800000000 11.7412134300000002
  4.5741425700000002 17.6141886899999989 11.6693367200000004
 21.5422723199999986 20.9708711200000018  7.4309252299999997
 11.5603523100000007  9.8413189100000000 28.0468879899999983
  4.0465045499999999  4.6019433899999997 29.8625992099999991
  0.7048802800000000 16.9229489800000010 14.0034398200000005
 15.8131314500000002 16.3002665600000007 13.5800790800000009
  5.3890641700000002 29.0014448599999994 17.2837524500000015
 23.0275040699999991 28.2609706199999984 32.1331336599999986
 11.5774493300000003 17.1908490299999990  1.5997257000000000
  6.5898756199999999 16.0395867099999982  7.3338399499999998
 24.8480604700000001  1.3522489099999999 12.2475015999999997
  8.7594099300000003  9.4027557700000006  7.1162826600000004
  8.3627074799999992 27.0245541799999991  6.6821501000000003
 26.8966794399999998 27.4913793800000015 12.6131846999999997
 29.7951758799999986 22.5210794199999995 21.7818726900000001
 22.9342396999999991  0.7666212400000000  4.6032484299999998
 16.7964295099999994 22.5907298599999997  2.3966932800000000
 31.2239125500000014 25.2981771100000010  6.4627062799999999
 13.7044740699999998 31.0956470600000010  4.5401042900000004
  5.5327358999999996 28.6922836699999984  1.2115915200000000
 28.2187075999999983 21.8186686200000004 11.3634512399999998
 25.5250581300000015  4.6519682199999997 30.6298436900000013
 15.7829413400000007 33.8950292999999974 13.7573955100000003
 10.5463910700000003 13.1947315500000002  3.8532377100000001
 11.3661119199999998  0.2429754800000000 23.6889712299999999
 15.5395355599999991  2.9742189400000001  7.6977930800000003
 16.8082776400000000 11.7222865899999995  1.4707379100000000
  8.6920866500000002 32.9002938200000017 25.2382331700000009
 13.9848745099999991 18.7858850900000007 34.3707452299999972
 29.1150287299999988  1.2879464199999999 16.5155579299999999
 26.9822018600000000 29.8665874299999992 32.7349154999999996
 10.7247914600000005  1.5701242900000001 34.0790082999999981
 25.8924963199999993 20.1856720900000006  5.5908794000000004
 25.9101239399999983  1.4530369400000001 26.1917947200000008
 10.4939233699999992  6.3700017500000001 30.6193771400000010
 14.8715569500000004 11.2576934400000006 33.0537216900000033
 13.9004300199999999 34.5273913899999982  1.8671418700000000
 21.0533898800000010 29.3237819100000010  9.8026011299999993
  7.3172330900000002 25.7364883599999992 23.1598328199999983
 12.3102198000000005 12.8641279199999996 12.3979426999999998
 17.2230395700000010 17.6259887400000004 34.9928208299999994
 19.3396911699999983 32.1895285800000011 14.4069208399999997
  7.1186163899999997 12.5857309799999992 23.3805018800000006
 11.0951288399999992 30.8303335999999994 25.4167560700000017
  4.4193458699999999  5.9460272099999996  9.8793725299999995
  2.6141837400000001 11.5861815499999992 23.9532732999999993
 12.6643228000000008 14.2732735399999999  0.9084548099999999
  8.3999641700000005 23.1978407100000013 21.1088878199999996
 17.0776313799999997 23.7505798400000003  0.9953069600000000
 33.1239957499999988  4.9966373800000001 13.4844570899999994
  8.2703942099999992 15.5155248900000000 19.4268583499999998
 27.2082163699999988 13.4924631799999997  2.8287304400000002
 12.4724920000000008 10.1730648299999995  3.7006189699999998
  1.3030925499999999 26.0765140500000001 32.9716137699999976
 33.9126224099999973 29.4448655300000013 14.8548939200000003
 11.2021829400000001 10.0886776499999993 20.4052382799999990
 20.8396980899999988  7.8058245199999998 12.4926837600000002
 34.5359015499999984  4.8973662899999999 25.0352662099999996
 32.7191580799999997 25.8898082400000007 10.0070163799999996
 12.9242884000000000  8.5151144500000004 33.5284929899999966
 13.3817644900000001 32.3157421000000014  0.6775496800000000
 12.5774887399999997 24.8532964099999987 19.3527275000000003
  6.2911621799999997  0.5627031100000000  7.3511162299999997
  0.2104688300000000  2.3496991600000001 11.3937314900000004
  9.4450891600000002 18.6135468899999985  7.8826276399999999
  8.3226884200000004 19.4243451699999987 19.9693014700000013
  9.0498545200000002 25.9048438400000016 17.7105011499999989
 20.3927513500000011 20.9720062700000014 26.5093829700000008
 28.1995757299999994 15.2693135699999996 11.3532297599999996
 28.7326527499999997 14.6948431700000004 16.2292145000000012
  9.4081609400000001 27.9609029699999994 28.8962682199999996
 34.5799596399999984 10.3817021900000004 10.2687773799999995
  2.3414786200000002 13.2311174200000004 20.3905484799999996
 18.9483099300000006 34.2449703200000002 15.2162136300000004
 28.9024818900000007 34.0130744499999977  2.7422375699999999
 28.7868173600000006 15.0393321400000008 31.0553360599999984
 27.0331139399999998 10.5459219799999993  5.3106819500000002
  6.6315959199999996 17.2326923100000009  4.8595797599999999
 19.9570193399999987 12.6240042399999997  1.6391829600000001
  4.7479614400000001 33.9879300099999995  0.1397026800000000
  2.9829369500000000 14.2213565499999994  3.3395806100000001
 23.3312511200000010 23.3375797100000000 24.7021250499999994
 33.6157073400000002  9.1931852099999993 19.8638454700000011
 21.6507488600000002 24.1361122899999998  5.6393368400000004
  0.3342008100000000 16.9130974999999992 23.4296326700000002
 31.8363313199999993 28.2204938799999994 16.8406210999999999
 30.3187684299999987  2.5409982800000002  6.5580265700000000
  5.7525567700000000 13.2216958899999995  2.0428280700000001
 33.8113023800000008  6.5591803200000003 25.1435605700000018
 32.8224888100000030 12.5693645899999993 28.3106625200000011
 27.3049545800000004 29.3715663599999992  7.9158526299999998
  6.7351133799999996  7.0505836000000004 24.1585823700000013
 33.2938591099999996 24.8901068000000016  8.0249086799999994
 19.6402319699999985  8.3786504399999995 14.9778759800000003
 13.1615657699999993  6.4359747299999999 19.4273248299999999
  0.0484383000000000  9.1024913600000001  0.5723457600000000
 29.4151489599999998  5.4084872199999996  5.4447068600000001
 19.1882777400000002  7.3839312200000000 26.7320887099999993
 26.2149890499999998 15.3210325399999991  5.5939404399999999
  7.3569579200000002 28.3918407399999992 26.6673768299999985
 23.6023754600000011 30.1243115800000005 24.3046845000000005
  3.8323582799999998 10.4456452599999992 34.9598988099999985
 26.0192194500000014 15.0213229199999994  8.3743398700000000
 12.5301931700000004 34.9566369400000028  6.1971071999999996
 29.7806266099999988 22.9914547099999993 17.3793464499999999
 19.6758483700000006 11.9835121200000003 16.8881904600000006
 24.8170591000000016  5.3122241800000003 32.5518265400000004
 13.5486215399999992  1.6822107100000001 27.9154379299999995
 34.7652619699999974  9.7579748199999994 27.2828483599999991
  7.8323733700000000  3.6991570100000000 11.7319323400000002
 23.5868159900000016 13.6163961899999997 20.7706941200000017
  3.0561567100000002 19.8258453599999989 12.9830159900000002
 15.5498044699999998  0.5637400299999999 24.7786405099999989
 24.6109723900000006  6.6130033900000003 19.7479946700000006
 34.5463414600000007  5.3608866900000001 10.4226755699999991
 33.9082692899999998 26.2819699600000014 21.0691956299999994
 14.9709466100000004  1.6996735999999999  6.4142637799999997
  4.5313105900000004 32.7370743700000020 12.0088959099999997
 23.5135574100000007  7.3594229699999998 34.8218612399999969
 16.0218919600000014 24.9381865800000000 11.1019174899999999
  4.9271752400000004  1.0342680500000001 22.9430459900000017
  8.7740252000000005 10.0414943999999995 32.3964556000000030
 27.2293336799999999 18.4111088400000007  0.5062579400000000
  3.6771403399999998 26.6976718899999987  7.7714024300000002
 28.9606200300000012 31.1407940799999992 28.3260525100000002
  5.9646194000000001  7.3583177900000001 16.2471477600000007
 30.8124023800000018  4.0467550000000001  8.8113169700000000
  6.8042630700000002 14.2493962700000001 19.6031533399999987
 15.1982457699999998  6.9167020800000003 14.0118744399999997
 17.5737231200000004 31.5644613599999992  8.9020621500000008
 26.9586199899999990 18.5261389600000008  8.8175504199999999
  6.5699202999999997 30.6505498500000009 13.7913333900000001
 20.9402047300000014 17.0208383599999991 14.2302669799999997
 13.0970781200000008  7.5919927200000004 23.6217284499999991
  5.3899789299999998  9.3759168200000005 11.0339813600000003
 18.1246635000000005 16.2193769799999998 19.0688318099999989
 29.8562356099999988 33.7519484999999975 23.9984540899999992
  2.0178393300000002 33.8255531900000008  1.0724545200000000
 34.7430875000000015 22.0715926200000006 27.2571667200000007
 31.2010649800000017 26.2990520699999983 28.1680862800000007
 11.0261190300000003 25.9826013799999984 29.5814322499999989
  0.1317732100000000  9.7123123899999992 29.8343615799999995
 16.1150614800000014 15.8383045399999993 19.3843579499999983
 12.9040639299999995 18.6025144199999986 32.4598175599999976
  7.1537332400000002  7.7945811100000002 33.5247632000000024
 20.6950511599999984 26.7248075500000013  8.8404705700000008
  6.7888241300000001 34.7671409000000011  6.3371791300000000
  3.9695613299999999  6.4172972699999997 20.5152148300000015
 14.2157095099999999 13.4296701800000005 32.4667062299999998
 17.9316398700000015 27.0712973000000012 22.2936441999999992
 14.2781356400000004 12.6256893699999999 29.9611697700000015
 12.3803160499999994  0.9718361800000000 23.6506059399999984
  0.7340117400000000 16.5352487799999999  7.9262914300000000
  7.1800070199999997 29.3780571799999990 12.0070267600000005
 27.0987068600000001 27.9662609999999994 13.9487034300000001
  5.8586045300000000 10.5663950700000004 34.4019761899999992
 29.0138056999999989 15.0323765399999996 19.1524279799999988
 34.8570411099999973 12.2900020500000000 23.0643841400000014
 18.1041722900000011 21.8237543699999996 26.8397300899999998
 15.3435978300000002 34.8487204400000010 12.4444055400000000
 28.1238811499999990  3.0704505100000001 15.0617282400000008
 22.4665221799999983 14.8383065500000004 12.4182226500000006