Na Cl 
 1.0000000000000000
    35.0000000000000000    0.0000000000000000    0.0000000000000000
     0.0000000000000000   35.0000000000000000    0.0000000000000000
     0.0000000000000000    0.0000000000000000   35.0000000000000000
 Na  Cl 
 7900 7900
Cartesian
  5.3008398600000000 16.2155683800000006 25.0577011399999989
 24.7831025300000007 29.6042209300000003 33.1412147300000015
 14.3959327500000001 32.4416984400000032 17.6256747800000007
 29.7159696199999992 21.3014135200000005 32.8570918100000000
 34.1419727800000032 34.1364636099999998 11.5439411199999995
 14.0184654299999991 23.3484275399999994 32.0216623199999972
 28.0785969299999998 11.9786191100000003  4.6513241200000000
 19.8044097299999997  2.7143817100000001 15.6133691300000006
 18.8949190000000016 11.9036025599999995  3.8482025399999999
 31.7400898299999987 20.6897396600000008  7.4544222800000002
 21.4753058800000005 15.4659515899999995 26.2483745500000012
 16.4310504500000008  6.6649960500000001 18.5886929999999992
 10.1633167199999992 14.8640310099999997 24.7691265600000001
  4.7101090000000001 27.8019388399999983 17.1860150500000017
 25.3550081899999995 16.6226291699999997  6.5284389000000003
 33.4726064800000032 19.0970446699999989 14.0296915700000007
  2.0262637200000002  0.4143951900000000 34.7398885200000009
  3.3062749999999999 23.5640033799999991 15.2048358100000005
 12.6755189700000006 27.4473654700000012  7.8714538400000000
 30.5246926700000003 33.5097553599999998 13.4583310500000000
 24.1700294500000012 15.6849944499999996 32.7018020699999994
 14.1873689200000008 27.1094802600000016 34.0347922799999978
 17.7538472799999987 13.9113121599999996  7.4235364199999996
 27.3765729100000001  8.0609365000000004 30.1597300200000014
 24.5824783499999988 17.7135552199999999  1.7226202500000001
  7.0785662800000004  4.4634248699999999 11.7818062300000008
 21.8172602799999993 22.6934974499999988 14.6116647600000000
 18.2496013899999987 16.0506063899999987 17.5416205299999994
 17.0162864200000001  7.7257856599999997 32.2796652800000032
 24.3343653899999985 12.6791477100000005 18.4354827499999985
 25.1585387400000009  4.5606691899999996  1.1670379700000000
 14.4071148099999995 10.3785731099999996 27.6783151899999993
  4.4433823900000000 24.9278295700000001 12.0315690699999998
 19.5814332499999999  0.1485607700000000 11.8608679600000002
 20.6077776899999989 29.9195944599999990 13.6240287900000006
  9.0518126199999998 23.8147657099999996 29.7673321000000008
  9.5506080799999999  7.0699950300000003  0.4065373300000000
  7.6728812800000004 18.1157185699999985  5.8819846299999998
 18.5156777400000010  7.9957388299999996 19.3825697499999983
 17.8497885499999995 16.3961322000000003 14.7938967500000000
  1.0226300500000001  2.3431775199999998  6.7845691099999996
 33.2529874199999966  2.9596200100000001  7.3335252200000003
 19.5583348800000003 31.9343097699999987 29.9443098100000000
  9.0149948500000008  0.0184974500000000 30.8866313000000012
 26.6122773499999994  7.5453936400000003 10.4308912199999995
 31.9887064800000012 34.1897351400000034 31.8785495499999989
  2.7822187299999999  0.7501555700000000  7.8646706200000001
 21.5190673600000011 15.9651642000000002 16.5146611099999987
 11.9093190399999997 29.9250246199999985 34.8888468600000010
 21.8492187700000002 34.8199198200000026 18.3924671699999998
  2.1956826800000000 12.8388082299999997  6.8499146099999999
 11.5149025399999996 15.9669784400000001 12.0066653300000006
 21.0241921000000005 28.5966157999999986  3.3218285399999998
  4.9722108299999999 22.9474052399999984 12.0399157799999994
 19.8644846599999987 32.3937320200000016 16.4540738299999987
  8.6189276800000005 28.3175375199999984  2.8530398699999999
  1.0411337199999999 33.3344473800000003  7.0570739299999996
 28.2415388100000015 20.5427750499999995 22.4201958899999987
  6.2323912300000002 27.7993780999999984  9.1477930700000005
 26.9580964600000001  9.7271868000000001 34.8284747000000010
 22.1743360900000006  4.0667322700000001 29.5693280099999996
  6.6957916400000004 11.1701668999999999 31.9950334299999994
  0.5268881900000000  0.4098733300000000 28.7410689200000000
 16.1453540900000014 34.9662430699999973 27.6472786500000005
  7.8122319899999999 15.1830160500000009 30.9507952899999985
 20.0164240100000015 31.0382743000000012 20.2760790899999996
 20.0613356500000002 15.8682276499999997 32.3021898699999994
 17.9051598500000004  2.0216005500000001 27.0403899199999991
 27.8333329700000007 19.8273083300000010  2.5711594299999998
 23.4765027999999987 14.5825067700000002 18.1913550700000002
 17.1045863900000015 21.7834862800000018 15.0539787999999994
 32.2216502400000024 29.2755856100000003  4.7673173499999999
  9.3026295700000006  4.2951777199999999 19.0519035800000012
 25.3434512900000009 32.3858011599999998 23.1601658199999996
 17.9070129800000011 33.1671848599999990 30.8759508199999999
 22.1053806600000016  0.1328069300000000 27.0861477700000002
 26.8856384800000008 16.9258554600000011 27.8526627200000014
 29.7023615999999997  2.5913855200000002 13.4164951200000004
 21.0334407100000007  9.0380139899999996  1.9012091200000001
 33.6216037100000023  3.2935685299999999 20.0062958500000008
  0.8143515800000000  1.8070758200000001 26.5233275699999993
 17.5663860400000011 13.2501133200000005 24.6545645700000016
  4.2667046600000003 30.5052681399999983 22.0415663700000017
 12.6059505400000003 13.2106511100000006 26.4132061799999995
 21.7562955199999983 13.0587772500000003 28.8692862199999993
  1.0934368299999999  2.3928295700000000  1.2866484700000000
 29.7008841100000005 12.7591767600000008 33.4838735499999984
 33.4627013099999999 27.6209354000000005 20.0612964200000015
 15.2088951800000007 10.9012277500000003 26.9347915299999983
  3.0412366600000000 14.0644741300000007 26.6166807600000013
 11.5536153400000003  1.6130868599999999 21.1507930900000005
 21.3794882400000006 15.0588369300000000  8.8723215300000007
 17.1079030500000009  7.5265274099999999  8.3462059100000001
 29.6827980899999986 23.7874557600000003 25.7689322099999991
  8.4436798700000004 22.9276038299999989 29.2375330899999994
 30.2186483499999987 34.8228883499999995 33.2845146399999976
  7.8374939699999997 19.7610830700000015  9.5231587900000001
  0.7298280700000001 16.2203298599999997  0.0840094900000000
 11.9474908600000003  6.4788094200000002  4.3499103600000000
 28.9434282200000013 22.1981282200000010 18.9410603799999997
 17.4018623099999985 13.0998201400000003 18.6770594000000010
 25.3372532499999998 33.2153784400000021  0.8654894800000000
 21.2816124799999997 15.0610093400000000 10.3840559199999998
 14.8279043099999992 12.5877381199999991 22.1146578299999987
 16.0541180899999993  6.5626972900000000 14.2533883600000006
 16.6981082900000004 15.1060409100000008 32.2295341600000000
 21.7805956000000016  1.4701872100000000 34.4365049700000014
 14.3389688900000003 20.0501254899999992  2.4591098599999999
 30.2594129000000009 19.9526058299999995  8.4462242399999994
 30.6908071999999983 25.3965694699999993 15.1430687899999992
 24.5572167599999993 13.1420623499999998 28.6419987899999988
 31.0736328600000000 19.5474801199999995 24.4983552600000003
  3.8568215900000000  1.6003933100000001 17.8103064400000015
 17.8203139200000003 11.0161113000000004 32.7826951600000029
  8.7575096200000004 12.4641645899999993 10.2143381600000005
 32.3813883799999971 18.9944384399999997  4.5268309599999998
 27.4479890699999984 18.3522927600000010 26.9844403600000007
 32.4890792799999986  8.9554989799999998 15.0713547099999996
  9.2585494399999995 33.4404980199999997  4.4502574700000004
  0.4772844800000000  6.7202493600000004  2.2309593799999998
 10.7342944100000004 21.2860897099999988 20.3098279700000006
 27.2787390800000011  8.7676386700000002  7.7031530699999999
  1.8935835999999999 10.4596416800000007 25.1977840099999995
 34.1558395300000015 22.1950180300000000  1.6680748599999999
  0.3341421100000000 15.9264271199999996 30.4606814600000000
  7.6733621899999997 26.1983622899999986 15.8750005400000003
  6.1341480500000003 21.6262321200000009 32.0831709799999985
 11.8546729499999994 21.4883046299999982 23.9359189199999989
  0.9892757800000000  1.7579959300000001  6.6375863700000002
 12.9141587399999995 13.2659908299999998 11.5078119000000001
  1.7946189400000001 27.1604756899999984 16.1149686599999988
 14.2783134799999996 15.6147363099999996  6.8732174099999996
 18.1649687799999988 28.6302203800000008  8.1139183900000003
 10.6264541599999998 28.8150734200000009 34.9389577700000018
 24.0633241399999989  7.2888748999999997  4.1204616800000000
 22.5995270599999998 10.2512482400000007 22.7291560799999992
 18.9262607400000000 13.6642336400000008 19.7747429699999984
 29.1050834599999995  9.1377128400000007 32.5397810699999965
 21.1004060399999993 14.5243067700000008 20.0238240199999993
 15.4102387400000005 34.8825774100000032 21.4784657999999986
 33.5746759600000004 19.5788016200000001 25.9187740700000013
  6.8357114299999999 17.8020311199999988 18.7370449100000016
 18.5138624000000007 12.4853817800000009 16.8115834900000003
 32.2837168200000022 22.4285911700000007  7.3317329600000001
 24.4358526900000008  3.3761038900000000  7.1780060700000003
 30.7479919499999994  6.5006198099999999 20.9171283599999995
 14.1763832999999995 17.4741985900000003  3.8557690000000000
 18.9096291000000001 14.1362986799999995  8.7719976600000003
 10.9646608800000003  8.0554124999999992  7.3179376700000001
  2.5784502900000001  6.0140054200000002 32.3891532700000013
  9.4989893100000007 14.5133624999999995 11.0834848000000008
 10.1291136399999999  0.0129435300000000  7.5419164600000004
 21.9899832099999983 20.6478395900000002  3.2399468300000001
 28.7864533999999992  8.9223593300000008 18.0931901800000006
 12.2473661299999996  6.4825625899999997 32.4294291599999980
 21.4159496800000007 32.8663283100000001 14.3798462300000001
  7.0756635299999999 25.6769303200000003  2.1679480500000001
  1.7027987099999999 23.9378887800000015 34.0966960700000001
  8.1709106800000004 23.4957486899999992 23.0482265899999987
 26.5443812799999996 21.4161844399999985  1.8119141000000001
  2.8403607300000000 32.9427949299999980  4.5544382099999998
  1.4430170200000001 32.7869941499999982 11.0107071500000000
 11.9550580699999998 28.6609491500000004 34.5723083000000031
 21.7855723300000008 15.1141956200000003 29.2857735300000002
  0.9957154200000000  4.9890520799999996 25.9982629199999984
 12.8049269100000007 32.4066134999999989 22.9531657200000012
  3.8563297599999999 28.3342212300000007  3.2561585700000002
 21.2570381399999988 22.0400244200000017 21.6903766100000013
 25.1597058199999992 24.1757419400000018  6.6947054200000000
 27.9140257799999993 11.0312102200000002  6.5500965600000001
 12.4728927600000006 16.9085556100000005 17.0941617999999984
 21.5774534299999985 17.2597993500000015  5.4476392400000000
 33.4727641599999970 21.7472489600000003  1.0132015500000000
 18.8784920199999995 15.8153177599999992 18.0456572100000017
 18.3607453499999984 29.0471690100000011 15.7695853499999998
 19.4209453900000000 32.8292534300000014 21.2624438399999995
  7.8936841800000002 19.1500826599999989 30.4392584200000016
 32.6161963999999998 10.4129625699999995 10.6619852200000000
 30.9856746700000016 11.2342171400000002 23.4874720000000003
 23.9419480600000014 32.3210352400000005 19.6392238100000007
 26.4346001199999989 31.3242349599999983 31.4170401400000010
 16.1936111199999999  6.0221636700000003 29.5048339199999994
  7.7436100799999998 16.8546494299999985 21.0929947200000001
 29.9622398099999998 30.3644517100000009  0.3398324800000000
  6.5644246800000001  8.2856573099999995 27.0424258299999991
 27.0509628800000002 30.5331601299999988  0.8223017200000000
 30.4250346500000006  3.5573603299999998  8.5551041800000007
  5.6359146700000000 12.8177826800000005  3.4734550199999998
 33.3585286499999967 26.7910686399999989  2.4905537899999999
 33.7375407099999975 26.8467542799999990 28.3991735699999985
  9.9102309900000005 31.2521783500000012 10.3616086500000009
 22.5566001999999983 23.7796285699999999 34.2174479199999979
  7.6472284300000002  6.9681580600000004  3.8325648100000000
 13.9167965500000008 29.5996960599999994 27.0917193900000015
 15.5278336100000001 16.2994769200000000  0.3085134100000000
  5.1848203899999996 26.2763326299999989 31.3225432700000006
  2.9846623900000000  8.2207547600000002 21.2251879499999987
 11.7338198800000004 20.3106515999999999  6.1214340399999996
 17.9419721900000013 25.7266524799999985 32.8481699100000029
 24.1916335199999999 28.7846221600000014 13.1446535000000004
  2.1913609500000000 10.2034882200000006 25.0265150500000004
 25.6384353800000007 20.1833673599999983  1.8551647899999999
 29.7545549700000009  4.8054446700000000 20.1086047800000003
  5.3205841400000002 33.0575772899999976  8.7015543999999991
 17.0248596499999998 11.8160918000000006  3.0549455999999999
 34.4706328700000029 27.9267238400000011 14.4475735200000006
 25.3681269200000017 27.1092170599999989 29.6112109799999992
 10.6229219399999995  4.4491277000000000 16.4892213100000014
  4.3424789900000000  9.0444360699999997  4.8369763499999996
 25.0615336199999987 19.1955302799999998 24.2774410600000010
  0.9518378500000000  2.5386864800000000  2.7037033300000002
 11.1418084999999998 10.3754457599999999 10.1168888199999998
  4.5504801700000002  4.9202870599999997 25.2645790999999988
  1.7810073600000000  8.3907325000000004  8.0410484400000009
 10.9011730700000005 26.0157801199999987 27.2164639400000006
 12.1095153799999995 34.6249396500000017 31.3607622200000016
 15.3306322799999997 26.9367341099999997  0.6901099800000000
 13.6783815700000009 12.5590156799999999 29.3764538000000002
 20.0590373299999989 12.2404386699999996 30.0527194000000009
 11.0549606600000008 20.7237298299999999 18.7272545999999984
 28.9680879800000000 16.6547431999999986 21.2689077399999995
 11.5323376399999997 28.9987657100000007  7.2552064999999999
 33.2556896600000016 13.3760408200000001  6.1181200100000002
 32.2430326599999972  3.6498615499999998 23.2230126299999995
 24.1732567600000010 34.9263901099999998 22.8386181599999993
  3.6553472100000000 10.4205382600000007 32.9865648700000023
  5.1958168200000001  1.0932252000000000 33.8359403999999984
  0.6503821100000000 10.9720795199999994 27.7404708500000012
 34.0936506500000007 26.9864948499999997 32.0189813200000017
 18.0190976899999988 26.9748525800000003 11.3473450400000004
 34.8281243300000014 16.2855410700000007 11.0887997100000000
 29.4567487999999997  4.5770284800000001 31.1177208599999986
 25.5344645899999989 22.7463099299999989 27.2309601000000008
 10.7464252800000004 15.1696613399999993 16.4980773800000016
 13.1864435600000007  4.5568566600000002  7.0898918699999998
 19.8127387400000003  2.6999528300000000 18.1072130599999994
  2.9298282400000000 31.6232381400000016 16.7634515600000000
 28.3304285799999995  9.5131984400000000  8.3262157800000001
  8.7086618599999994 31.4799076100000015 22.8071891700000009
  0.4284067200000000 25.2317002700000010  9.1864313899999992
 11.3523771100000008 14.4021010599999997 31.1124857500000012
  7.5479560699999997 18.4976011900000010 19.1831670500000016
 26.4885503100000008 28.0649939400000008 28.3532332899999986
  7.7919061999999997 23.5674372100000014  2.9171088400000000
 27.8483097300000004 26.5416574199999999 10.6362679100000008
 18.7547490000000003  1.0664735999999999  4.2218659699999996
 11.9013937900000002  1.7253461000000001 17.8919014099999991
 24.1869453499999985 19.9904191299999994 13.9742525499999992
 15.2626456299999997  4.2850612999999997 24.0252053699999983
 31.6267092199999986  5.1019123999999998 32.8416486799999987
 19.5893192200000001 27.6880850500000015 28.6453835400000010
 17.9611239599999983 32.6104674099999983 19.1257676900000000
  6.7774828999999999 19.1551349500000008 10.3531735000000005
 20.7869690799999987 31.5892884699999996  6.1713177100000003
 16.3367702299999991 32.0973047499999993  4.4009066399999996
 11.0378486000000002 13.1213688400000006 30.8461709299999995
 11.5947834000000007 28.5245880900000017 17.7520623899999990
 18.9126431299999993 29.7931389600000003 23.2864663000000007
  5.6390206200000002 30.0195482399999989 13.5473031200000005
 14.5234896899999999  6.2912460599999998  1.9725843999999999
  8.2259612799999999  3.7312356599999998 25.8777145100000006
 16.7477151000000006  8.8477102399999996 23.4659348500000000
 11.9670478800000009 20.1737178600000000 14.6760844299999995
 15.9510508800000004 24.3122007000000018 25.1571192600000018
 15.7033521100000009 26.2389964499999984 33.8133346299999999
  5.7151775599999999 14.9893307399999998 30.6817188099999996
 12.6481075500000006 21.7435214600000002  8.3651113499999994
 32.4265419500000007  7.8905036800000001  0.6953936400000000
 32.4809064800000016 11.5952051600000008  0.6131655200000000
 15.4729173000000007  3.3211148399999999 27.9771259800000003
 21.5564076200000017 13.5428535599999993  9.7397921899999993
  1.6873122599999999  8.6571480899999997  5.6878865500000000
 11.3092292899999993 24.2166343899999994 28.9741700100000017
 13.8753825400000004 33.5544239800000028 29.2038196899999996
 23.5975751299999992 19.4452448999999987 21.2310760899999984
  5.6958721199999998  5.5226965500000000 34.9609669700000012
  8.9718539699999997  9.9497219500000007 29.9767367799999995
 29.0150577500000004  1.0756834099999999 19.0110536799999998
  3.7791994500000001 27.0052138600000013 31.6293208499999992
 13.9955956700000002 23.9764933999999990 17.9245041200000017
 12.1407191399999999 34.0665392599999990 26.3252979499999995
 14.2826062999999994 17.7641170600000002 11.5153511599999998
 23.5069808500000015  1.8271403399999999 13.7476480199999997
 21.7202121699999999  1.6060237900000001  7.4419111700000000
 21.2011124399999993 27.0967938900000007 30.8148317100000000
  9.8766103699999999 26.1905483399999994 24.5459416700000013
 33.6416356300000032 24.9700431300000005 21.5149519699999985
 16.7977084099999985  9.0851877900000009 24.7511164900000011
 17.0148688200000002 18.9002436500000002 31.3950436199999992
 31.4981933299999994 15.1352877699999997 33.7814821899999984
 30.3711716600000017  8.2820889999999991  2.0697408300000002
 31.1342006100000006 22.5097118099999989  5.7263855200000000
 28.3614689400000017  6.2084468099999999 10.3655141900000007
 18.1970244200000018  7.3894973000000004 15.2811500500000008
  0.2889316100000000 26.0735491099999983 18.1398293399999986
 26.1117798299999997 30.6835715899999997  8.7876655600000007
 29.2949854899999984 15.8210609499999997  9.5714389700000009
  7.1747192200000001 10.5059558499999994 33.5999006799999975
 23.5306808300000014 15.1527082300000000 11.5672866699999997
 21.3870314899999983  1.8383099599999999 26.4755195000000008
 19.0562202200000002 27.8933073500000006 12.8165542000000006
 17.8265146200000011 10.2311834600000005  0.5004528600000000
 11.1112732399999992 22.1693427300000003 25.1433224899999992
 28.8210227299999993 29.9290427500000007 32.4215306400000003
 28.6655047600000010  6.1384222700000004 23.4630668000000000
 33.7637352400000026 12.0981431700000002 18.4922062199999999
 33.5100224899999972 17.9479277800000006 20.8221977799999998
 28.6780716399999989  7.3499799599999998 16.1131104100000009
 18.0467173699999996  1.1788837200000000  3.4986788000000000
  2.2945203400000000 29.0032928699999992 13.3433249699999994
 16.2627732800000011 13.4305273799999991 11.8736824199999997
 25.9804985100000003 29.2385269699999988 11.9227421899999992
 10.5279448999999996 18.1698617700000007  5.8668127999999999
  8.5227451700000003 21.7781103599999994 29.7007762100000008
 10.9458070099999993  6.1783607800000002 29.7095487200000008
 18.3853687400000005 22.8923880199999985 32.3654229599999965
 30.6636508499999998 23.9798931400000015  5.0640043099999996
 25.7204846399999987 34.1853263599999977 27.7802071999999995
  1.9423926199999999 25.7927838800000018 24.3186484199999988
 28.5240411800000011  8.5600308300000005 18.4381579299999991
  0.1202475000000000 25.9997728600000002  3.1825162100000002
  8.5500018299999994 24.8807822799999983 26.3078514400000003
  1.0590729900000000 19.8397663699999995  1.9534598299999999
  1.7993237099999999  1.2335322600000000 11.9767611499999997
  8.4246586200000007 18.2373636700000006 20.3711960800000007
  8.6925038000000008  4.9113510600000003 15.0772965200000009
  4.1226298799999999 24.0403154199999989  5.5811999800000001
  3.2281211000000001  5.0312667700000002  0.5005465000000000
 12.6849604399999993 11.1300936200000002 23.4834828500000015
 26.8962992400000012 21.1013054000000011 29.6399215600000012
  3.1617100800000002  8.8613665699999995  7.9878704000000003
 27.1377865400000005 19.7783744400000003 20.1392197899999985
 29.8669920299999987  4.5350520899999998 25.6204643599999997
 33.1444465000000008 33.7123832899999982 24.0259028199999989
  8.3486929100000005  1.4817927600000000 19.4909928999999984
 20.1176582199999991 17.4817553100000005 25.8615023700000002
 24.2702822900000008 20.6344805200000003 23.7140914999999985
 17.7358427600000006 26.3092057799999992 23.8215201400000005
  3.2889355999999998 12.1406915299999998 33.6025138199999986
 32.4498389399999994 14.4430533600000004 19.3977953099999993
 28.7458449899999984 26.4168234599999998 12.5518449800000003
 13.8585848899999995 31.2363101199999988 23.6642234599999988
 19.6037368000000001 25.0044125299999997  4.1614228799999999
 11.0343985399999998 25.1362685799999994 15.2660855000000009
 27.0989597300000007 32.2161751699999996  7.2561098800000003
 13.4386894899999998  9.0542827999999993 30.3310719300000002
 34.3259615099999991 11.4350964099999999  4.6653054000000003
  9.7878205400000002  3.8998203100000000 24.2800130699999990
  9.1796144999999996  1.7808270399999999  5.3600492600000003
 31.3479678799999988 10.2962062599999999  8.3386940799999998
  8.4314484600000004 27.3542016900000000 17.0677567600000017
 32.7878021300000029 24.5904361099999988 11.4597099799999995
 33.3456228000000010 19.8824619700000014 19.5383871199999994
 11.6723731500000003  2.5754826899999999 26.1375715600000014
  9.1652293300000007  5.0093322499999999 16.8471314999999997
 34.7391979100000015 26.6993389400000005  0.7896087200000000
  5.9537278599999999 34.3041192399999986 29.3320851699999992
  9.3553740300000001 15.7713926999999998 14.7970802100000007
 19.5271730400000010 33.1972399300000021 11.0114627299999999
 24.6541248300000007 31.8759902500000010 29.7681019599999992
 22.4896313200000009 18.2336206099999991 27.4615094900000010
  0.5899850400000000 10.8786426100000000 32.3463734099999982
 25.4978805000000008  2.8775485500000002 27.9584831899999990
 23.2269316799999999 20.0407630899999987 20.1051818100000013
 17.7907437799999997  4.0306281500000001 17.7673228200000004
 30.3946207100000017 17.3903395500000002 29.4368606600000007
 20.3171019199999989  9.5319097100000008  7.8064419200000001
 22.8694319700000008 31.5430669299999984 34.3259050200000004
 10.4856795500000004  7.8162257500000001 12.3061850600000007
 15.0523166800000006  4.2864426000000000 12.2407210299999996
 34.7984340599999982  7.2812459699999996 15.9009758399999992
 22.7009996799999989  0.7016737900000000 33.0313528900000009
 22.9480648000000009 23.1250286699999990 22.3568548800000002
 26.6599826200000010  4.3279275699999999  9.4786535300000008
 22.7298688999999996 30.9065537500000005 11.4488116699999996
 25.1777462400000012 12.3810266000000002 12.9140539000000008
 11.5038446600000004  5.1171225299999996  8.4783001099999993
  9.7900224700000003  5.9076291300000001 29.5227157799999986
 28.2841725400000001  2.0878909200000000 21.1827126300000010
 32.8512348200000019  5.7036611700000002 31.4332011999999992
  7.8125694899999996 20.8554119600000014 26.9088856900000017
 22.6418445199999994 21.4808897700000010  4.3144106899999999
 27.3004025199999987 22.8651675899999987 29.8716816899999991
 13.3541821100000000 23.7387205399999992 11.6761130200000007
 30.4314803900000008  6.8908636500000000 34.7454275199999998
 26.4003503700000017 15.6886322299999996 23.8419465700000011
 31.5959885100000015 13.7788404199999999 20.9708874999999999
  7.7062177700000003 18.4020502499999985 23.2585271200000001
 26.0652784000000004 19.1340805200000013  6.4913224800000000
  4.6569745500000002  9.7712961299999996  6.1740242800000003
 26.8260545400000012 30.4987071500000013 16.7711540499999998
 17.7861285799999997 31.4630519699999986 19.5144575499999995
 29.4880530199999988  5.7070889899999999 19.0446705899999991
  8.7786489599999999 17.7531540399999983  2.2600005900000002
  8.8298829800000007  3.8432881100000000 19.1432887600000008
 21.2542135899999991  9.5678120599999996 16.2172813100000006
 18.8470004600000003 11.5367871700000002 33.7819153599999993
  2.6514951400000002  8.6787534100000006 18.8086063199999991
 31.2464197599999984 18.5769697299999983 23.1302835000000009
  5.6748101399999999  1.5340192300000000 22.2611155799999985
 27.5696154600000014 32.5270406899999998 16.9729388300000004
 14.1828457100000005 21.0879250700000007 14.7565968099999996
  4.1226260000000003 23.9751217600000004 29.8714247499999992
  9.0357872100000005 34.4756678399999998  7.5494588499999997
  8.7549383299999999  4.2484405499999998  3.5403913400000002
  3.3572386200000000  5.1094822200000003 20.0676160699999997
 16.4233307599999989 16.9200334499999983  0.0021897000000000
  1.8023666199999999 17.3757639600000005 29.4648504299999985
  0.7411008900000000 30.6826812999999987 28.8246258299999987
 20.4862792700000007 17.8956893199999989 17.8504678199999987
 27.8126918299999986 22.9115948299999985  5.1742756099999996
 24.0501182100000008 30.3367993600000005 25.5868597999999992
 28.3526305699999988 32.6619625399999975  9.6044209200000008
  1.5024055300000001 15.9298065900000001 17.2594215400000017
 34.0978319399999990 27.2614210200000002 32.7031658499999978
  2.1084174400000002 16.1719262099999987 26.5638782599999992
 34.1019608300000030 26.6556849999999983  2.0977395599999999
 11.7088572000000006 20.7629051599999990 12.1470216799999999
 34.9933557700000009 28.3303893900000006  8.8544138100000005
 31.1328988299999985  0.6306660900000000 29.6050529500000010
 12.1249800000000008 14.5388975499999997 20.2511304199999991
 20.7488889999999984 21.5774158100000015 16.6275852399999984
 19.8251130400000015  0.6748372500000001  1.9895921800000000
 14.0757633999999996  6.3554204299999997 30.5512199600000010
 24.3538285899999991 24.7970818699999995 19.5550349099999998
 11.4717657200000005 25.9664097500000004  2.4485944800000001
 28.5273554400000009 29.2628052899999993 34.9684650499999989
 29.9920126600000003  5.7567142699999998 13.0966945900000002
  1.1460384800000001 11.4686579700000006  8.7345126600000000
 10.9542620300000006  8.2819039500000002 33.9596199499999969
 14.3325703999999998 17.5107247299999997 22.7504604599999993
 26.9889937199999999  4.0173918899999999  5.3054767199999997
 24.1471881199999991 16.7907818900000017 32.6712321299999999
 25.3983579100000014 10.2014530200000006 25.8209377499999988
  7.5007773200000001 30.5644212400000015  1.2278360900000000
 21.2412470300000003  1.6388425099999999 34.0259854800000028
  9.7379517199999999  5.7545660600000001 11.9917357399999993
 15.1025759500000003  8.9940683400000001 33.3066674700000007
 30.1601065300000002 30.9103718100000009  5.6190915600000002
 10.0718012100000003 16.7629809999999999 20.4217259200000001
 17.9475240099999986 14.0360312599999997  3.5773505800000001
 29.5311578600000004 30.1702209100000012 25.9028296500000010
 18.8580104999999989 21.5824053800000009 30.4871709899999992
 32.8827560100000014 10.4801836399999999 20.4464025999999990
 12.6884709800000000  0.1317218500000000  8.8491812599999999
 13.1893962100000000 19.1821032000000002  8.6085053600000006
 28.1495799499999997 14.9901997399999996 10.2870152000000008
 28.8645177400000001 25.9496155500000008  0.1885522800000000
 18.9981472300000007 31.8604576399999999 13.7116115500000006
 11.0552610500000004 25.7724032399999992 31.7813189399999985
 13.6273561700000005 29.9750950399999994  1.4222537700000000
 33.8190500999999983 31.7750164300000009 12.7010874999999999
  2.1776487699999998 24.7428188099999993 17.5557775599999992
  9.9534081099999998 21.9301584399999996 30.1729322400000015
  1.4720994599999999 31.5756077300000015 21.2390456199999988
 34.6397992300000013  1.1056054799999999 31.9113545300000006
 29.1356499299999996 32.8683782700000009 13.8335977000000003
 31.2765835999999986  0.5406432400000000 21.5909600300000015
 34.2652049900000009  5.3002894100000004  6.9640955399999998
  5.5537149899999996 31.2877890000000001 13.8697755399999991
  9.3175421800000002  9.9313661799999995  1.4713174600000001
 18.4325119099999988 10.2275942200000003 10.1760508299999994
 18.8863118199999995  7.2427149699999998 33.3104776500000028
 24.1978077200000001 27.5542956399999994 20.0468879800000011
 18.0462384500000006 28.1296585999999991 30.1720182500000007
 21.1107757999999990 13.8088628999999994  0.5588274900000000
 12.2136145000000003 34.2188661900000000 31.4840012800000011
 21.6095056999999997 30.9623742200000009  4.6235958000000004
  8.7746823099999993 21.0855188600000005  9.3154380700000008
  9.5676427499999992 13.3717699799999998  4.3379873699999996
  3.5537434999999999 17.7669506300000002 24.1393168200000012
 24.4977882499999993 29.3270430600000012 29.6126607799999988
 34.9897356600000009  2.4871773400000001 11.9894763799999993
 12.1294627599999991 19.8805760499999984 22.8416698899999986
 19.9457712100000002 33.5766460299999991 17.6897829100000017
 22.1813824199999985 17.4942953500000016 26.6219089999999987
 29.4245283899999990 23.0486647200000014 33.9079773300000014
 21.3749147000000015  8.1914077499999998 17.9899835500000016
 27.6534589199999985  6.6840787199999996 24.3110747399999987
  6.2331540499999996  5.6200666400000001 26.4600619100000003
  4.2605970299999996 32.8542958700000014 22.1507690699999991
 27.9758275900000015 34.7343378699999974 15.0166186699999997
 34.3100488299999995 23.9907234000000003 12.0882526699999993
 27.2626275900000010 17.9819538399999992 32.6982083799999970
 23.7881859300000009  3.0409531300000001  9.2993109399999998
 18.5189919200000013 28.6971436799999999 12.8937639399999995
 20.4906223199999999 20.8893005199999990  1.4738085800000000