Na Cl 
 1.0000000000000000
    35.0000000000000000    0.0000000000000000    0.0000000000000000
     0.0000000000000000   35.0000000000000000    0.0000000000000000
     0.0000000000000000    0.0000000000000000   35.0000000000000000
 10900 10900
Cartesian
 15.7186774200000006  3.8114611900000002  9.2282461599999994
 14.1331399700000002 25.6835435899999993  8.3171050999999991
 30.5854733799999998  5.0510639800000003 18.2322570699999993
  4.5445698099999996 10.5848778699999997 30.0423507799999996
 11.7895791200000009 12.4563073099999997 18.1569182299999987
 33.3246224199999972 16.9289393799999992  9.6840844900000000
 10.4080747599999999 33.5125002899999984 24.5924299300000015
  9.9697969700000009 17.3777375200000002 27.6344512299999998
  2.2217424399999999 30.8251284599999984  7.9339918100000002
 31.6003709599999993 17.4347972400000018  6.6372388100000004
  7.0727523899999998 11.7493654700000008  1.5854585800000001
 11.8024045700000002 18.0136521800000011  5.4522730299999997
  6.3528864000000000 22.9616837199999999  7.0183111100000000
  6.7547609399999997 22.2671338900000002 23.7192161699999993
 33.8662495399999983 20.0560784900000009 32.5111014200000028
 29.0815236100000014 33.1673342500000032 33.3867283399999977
 10.7431948700000000 30.8762203200000016 26.6349701400000001
  3.9430726699999998 16.2224213699999993  0.2359904900000000
 11.2921801199999994 17.6713419700000003 27.2444418900000009
 27.3349202300000016  8.0043371200000006 23.8938954199999998
 29.7003820300000001  4.3207071600000004 28.1253196999999986
 27.2482574000000000 21.4621942200000007  5.0982462399999999
  6.2246043699999998  1.9255791300000000 23.2084169399999993
 23.8634995600000011  8.8371417700000006 20.8417104199999983
  6.6270879499999999 11.4672550399999995 20.1555012799999993
 23.5099668800000003 17.0133810300000015 28.8949156000000009
 11.8465483299999992 24.9377269800000008  3.3772910299999999
 27.1302779399999991 33.5812615500000007 25.2628375500000004
  7.5106993900000001 22.3245885800000003  9.3602519100000006
 27.7537846500000001 12.8585481000000001 23.6179643400000003
 12.1266578500000008  7.7384408200000001 34.9747895200000016
 31.2875294199999985  9.5070051299999996  9.2352307099999997
 26.5225351700000012  4.2485273899999996  4.9998526800000000
 32.5239715599999997  0.3899651500000000  9.1442171600000002
  1.8577633800000000  3.4290999100000001 22.8822213800000007
  1.4947682200000001 27.5695243699999999 30.9960854700000006
 11.2085112000000002 11.4477445299999996  7.2423688600000000
 27.4934504299999993 12.4213924299999992 26.3425209600000017
 23.7498345499999992 23.4693594800000014 34.5248283800000024
 28.7905706700000010  8.1213162499999996 29.9622607800000011
 30.7169905099999987 10.4594993800000005 22.8061629600000018
 18.1808498000000007 15.5426350600000003 20.0675110299999986
 14.6578975099999997 25.2834730599999986  4.3316355599999996
  1.7988579899999999 28.4061847100000016 22.7463944699999985
 28.6517983100000002 20.7741737300000011 26.5378792300000015
 17.1362774199999990 29.4145595499999999 30.5023385900000008
  7.8047425300000004 29.3077626000000002 20.5659504400000017
 26.9290066299999999 10.8144861399999996  4.0685052199999996
 24.3672115299999987  4.7242342900000001 20.2057326000000010
 27.7478148100000013 17.5235941599999983 29.0471233099999999
 15.0015054699999997 25.3024170200000000  7.7229332099999999
 19.3384968800000010 12.1170045500000008 20.4955364200000005
 33.4806231299999979 13.8328829500000001 19.2636937699999997
 14.9011775899999996 19.0917898199999989 30.7114623900000012
 22.5484045399999999 26.0350208899999984  0.5961719700000000
  9.8622499000000001 29.8340467800000013 10.8242402000000002
 28.0050750499999985  1.2964210500000000 18.9486303800000009
  4.6308428599999996 25.5758801099999999 18.8170568399999993
 33.2743602099999976 12.1720074999999994 34.9300727600000016
 14.7328724700000002 25.3875433299999997  3.4407185199999999
  8.1561215800000006 19.9353481499999994 33.3963619299999976
 32.6549264499999978 31.3488814399999995 25.6504079300000001
 11.4060516900000000  6.5108233899999997 17.4087663699999986
 24.1363100099999990  8.9622958300000004 24.3059795799999989
 25.5988216800000004 19.3958953899999997 31.8138279699999984
  0.0066209900000000  6.2789965199999997  6.0945799599999999
 21.6054704099999988 33.1412496100000027 14.9821278099999997
 14.6220303600000001 17.4643071799999987 12.6108506899999995
 25.5674956999999985 17.9001477800000011 22.7837272400000010
 26.1037570499999987  0.8447382900000000 22.5163713899999998
 12.6540315299999993 16.3079302099999985  2.3830207500000000
 11.4296976099999998 18.9277889500000001  4.3488905400000002
 11.8032490899999996 32.2075163399999980  1.7271605400000001
 13.3871926999999999 18.5476894299999984 21.0162456300000002
  0.0402896300000000 12.1478774000000005 14.3754049699999999
  2.4313927899999999 19.4186922899999992 29.9613266399999993
 15.0168241899999995  2.7642169000000001 13.1935203899999998
 18.4972034500000007 12.4983520099999996 24.8021856999999990
  0.3350942800000000 31.9295521999999998 19.9837429700000015
  6.7680269300000004  0.2286154000000000 27.3390438300000014
  7.3095761399999999  2.0461290100000000 19.2902818099999998
  6.7664354800000002  8.4811375600000005 22.4789078599999996
 13.0043891699999996 24.7687661100000014 33.6520296099999996
 24.6616487400000004 18.3303167699999996  7.6338915199999997
 27.8148379100000014 23.9806697799999995 18.1169794899999985
 27.0743055699999999  2.8537896800000002 13.6432317699999999
 16.7962933899999989 20.3029255900000010 16.2704632700000005
  2.6761284900000000  2.6916132500000001 17.9438659600000001
 22.5551266400000010 34.0134352399999997  8.8060693400000005
 23.6073817400000010  9.2649422399999999  0.8842996900000000
 22.4248246999999985 14.0286930499999993 20.2441018600000007
  7.6199019100000003  2.6914524800000001 15.2418902299999992
  5.4491480900000004 23.8320006299999996  4.4345240900000000
 16.0463375600000013 15.7954543300000001 34.2009978000000032
 11.1699730800000001 28.7375420199999994 26.8687072499999999
 12.3626693099999994 19.3831597400000000 27.7657984000000013
  4.7737095900000002 11.7371178500000006  5.7397770599999998
  8.4329787399999994 18.0736467999999988 33.7817311800000013
 34.5558921699999999 25.8797202099999986 15.4574919099999999
 24.0664894199999999 25.4877199099999991  7.1085192199999998
 17.8825357400000016  6.7782327100000002 31.7572329999999994
 28.8150195099999991 34.0328207399999982 19.6182129299999986
 23.3046711600000016 31.6081875900000000  8.8087794800000001
 34.1566551700000005  0.9034907700000000 29.9693417199999992
  9.7263658700000004 21.0312509399999996  7.2345516800000000
  1.1101548200000000  3.3720081799999999  8.3414491700000006
 19.7362013099999984 11.3354396699999995  9.7345502800000006
 18.5865778800000001  9.6144213999999995 29.5804160600000010
 18.0526788899999993 31.3741369699999986 30.1200014699999983
 21.8646715299999990 14.5344618299999997 15.6999934700000008
  4.7903298699999999 11.0741285299999994 27.8781806100000011
  3.5815663700000000 30.3859788699999989 12.1468179000000003
 31.5684974499999988  6.7366089999999996 32.1873946500000017
 13.5419184700000006 29.0237383400000013  6.9703198500000001
  5.1657014600000002 19.9444723900000014 11.7474542799999995
  4.4641608100000001 24.1507958599999988  7.4260864399999997
  0.2348275400000000 26.7464098800000016 21.9107885200000005
 19.6226589599999990 28.0292013100000013 21.7864430300000009
 29.7479799900000010 34.2997325600000025 25.6051822999999992
 21.2989731999999989 26.8426123799999985 28.7863191100000009
  6.6652344299999999 22.5950896899999982  5.6724450800000001
 31.7845158699999999 32.3581594899999985 13.5866126600000001
 10.1990120500000003 19.7955014100000000 27.9922202499999990
 30.2457409900000016  0.1687999700000000  2.0210943100000001
 18.5320699699999984  3.5000199500000000 24.8353638399999994
 32.9599908300000024 13.5658587199999996 11.3874779900000007
  9.3425067300000002  9.5106137499999992 34.8853270999999978
 32.6925501699999970 33.6906383000000034  8.5579375100000004
 18.2557714799999999 14.7512512999999998 19.2805635899999999
 18.4322221599999985  5.3577924799999996 28.4181345100000016
 13.5866824000000008 11.3711282400000009 14.5523426699999998
  1.2232987900000001 14.9827484999999996 25.0541109999999989
 34.4436347400000002 29.1690173299999991 33.6743417400000027
 14.6615839599999997 17.2415514099999996 13.7544939900000003
 31.7804407399999995 33.8675672500000005  7.2027469000000002
 26.5670995400000010 18.2420050099999997 28.3781446300000013
  6.4767954200000002  5.5007067899999997 15.3789532700000002
 34.0675282600000031  7.9474888300000002 13.4447099300000001
  5.2397674199999997  4.7710394200000001  1.8595034300000000
 32.6742069800000010  5.3966874799999998 17.1264272899999987
  3.8634879999999998  8.6428130200000002  9.7584308300000000
 34.9469378499999976 18.1844793799999991  6.5449963300000000
 31.7533703600000017 33.8955604200000025 22.6839957599999984
 29.9167914000000010  1.5131207700000000 21.0207069500000010
  5.0217594900000000 15.7117175800000002 26.8373331499999992
 10.0583012299999996 34.8687880700000008 34.7210452699999976
  1.6078210200000000  2.6479398600000001 18.9252067500000010
 30.9499120599999991  5.1719929000000002 20.6847473899999983
 28.5493653300000005 14.1831137999999992 25.5936832400000007
  3.0342976600000000  2.4406935100000000  0.7358220700000000
 11.9615115000000003 32.1237440900000024 28.7668917700000009
 30.1499306999999988 34.8852245499999967 30.9690271300000006
 11.4389334100000006 34.1538837200000032 24.3237193000000005
  8.7502283900000002 30.0885504200000007 18.2668393999999985
 25.7698437300000016 23.7636411699999996 10.5171383100000000
 11.5436234199999994  8.6788858700000002 21.0347779199999998
 31.5125681499999999 11.7328414999999993  3.8670584699999999
 33.6516558399999965 18.3797743199999992 33.8669747100000009
 32.2440050700000000 19.9931988899999986 25.6937247100000015
  4.4312773200000004 31.4778779399999991 23.6944717400000009
  2.9866049800000001  5.8699019999999997 25.4429179699999999
 24.1223410600000001 19.1862446700000007  8.2142378300000001
 16.6951892899999983  1.0464452000000000 17.6045587200000000
 24.8184160300000016 28.1182250700000012 13.0087867799999994
 28.6794712599999997 30.8733849800000009 13.9814208000000004
 30.7394260999999993  2.5344007500000001  0.6734790600000000
 14.1624992200000008 29.1244641100000017 19.8682273999999985
 25.2979401499999987  2.4801408899999999 33.7279105900000005
  4.9933682800000003 28.5407230600000013  8.9324701599999994
 13.0259328199999995  1.8529615399999999 27.7245583999999994
 11.6531125699999993 28.8629583099999998 34.7403962500000034
 11.8397958600000006 16.4489942199999994 28.2459177799999992
 24.1401123599999998  2.8685140200000001 16.1150626099999990
 15.8572052200000009 22.0481163199999983 17.6909170300000014
  6.2425830099999997 24.0926959099999998 10.9401682200000003
 16.4073292700000017 27.9830544299999993 16.1958712499999997
  9.0081512499999992 24.9979877100000003  1.1793626699999999
 11.5484517699999998 19.8288260500000000 28.0794099599999996
 25.6432641699999984 31.3409773800000018 32.8068292099999965
 29.3784667500000012 18.8907098399999995 11.1602681900000000
  5.6273976499999998  9.6722366999999991 21.2822704099999989
 26.1187299400000015  7.4941676399999997 24.4755272300000009
  5.1861301299999996 13.2890527299999999 14.1092973199999996
  9.9600544200000005 28.6345572699999984 11.0039867200000003
  4.0048577800000000  4.6447780300000003 14.7843629700000001
 15.7884024499999995 20.6800270099999999 19.2138905999999992
 17.8592848699999998  1.0008849099999999 21.8727469100000000
 10.2572444100000002 18.5067694699999983 33.2743991399999999
 12.8264093700000004  8.4622283500000002 19.6718878000000004
 15.4183241100000004 30.7732747400000015 11.4284864000000006
 33.5709329199999971 26.6696628699999998 27.0239004799999982
 30.6953755400000006 32.1766172399999988  7.4060021599999999
 12.6782385800000004  3.1557881200000000 14.3309242599999997
 24.8439615499999995  2.4617292000000002  4.2826617200000001
 18.6955332600000013 20.8275180800000008 13.0963752800000002
 30.7793405500000006  8.3765724400000003 15.0529770799999998
 15.3857994799999993  9.1318656699999998  4.2663710600000000
 24.8983397999999987  6.3970737800000004 30.6190501799999986
  9.3763891699999995 18.9728155399999991 26.1108222800000007
 14.5900519499999994  5.0031509999999999 17.9588493999999983
 29.3817841299999998  4.6458035799999999 32.0206890400000006
 11.7207416700000007 10.5053100199999996 22.7454308900000015
 12.4569271900000000 28.5753027199999998 30.1128207199999984
  6.1777921800000000 20.1531996699999993 19.8268454699999985
 29.7917483800000014 34.9150884900000023  7.8922449099999996
 29.9602231600000017 31.4705987000000000  6.3522761599999997
 12.7054615999999996  5.6930831299999998 28.6481840199999986
 30.0287521599999998 28.2376046500000015 24.4213421699999991
  4.4978678900000002 30.6655869900000013 21.5205669099999994
  6.1679906700000000 30.4192402000000008 11.1700909799999994
 30.7191004499999991 10.9212872099999991 14.0741958700000005
 15.0100614399999994 29.1026387900000003  3.0500959999999999
 22.9634971999999991  2.4974409500000001  9.4899725099999994
  2.9679700599999999  7.6727308299999999 15.5871360600000006
 32.9957023999999990 18.7701563600000014 15.0178663500000003
 20.2796704400000003 10.4210737400000006  6.9863025399999996
 28.7868473499999986 15.5433503200000001 32.0888924799999984
  3.0158632999999999  7.6144178499999997 15.5207712999999998
  2.6031954499999999  1.9059765200000001  8.7473460799999998
 16.6455552199999985  6.8465028200000004 24.1729732999999989
 30.1623226200000012 33.1562196499999970 21.5836206500000003
 15.9122338200000009  1.9138073400000000  0.3599151800000000
 29.0944431200000011  5.3054883200000003 24.3422212400000006
  4.7124624199999996 32.3558612300000021  9.9596454500000000
 21.7610093300000003 22.2838610499999987 24.8526133899999984
  7.8731656000000001 24.2942695399999984  3.7882138799999998
  3.5106135500000000 27.8819774100000011 32.3943768399999996
 27.2915604000000016 14.2556810499999997 20.2313938700000016
  4.0367195499999999 15.1454678499999993 29.8781233399999984
 16.6189307799999995 14.3695750499999999  9.4477932399999993
 29.0609210000000004  1.8991745400000000 34.4264354800000021
 20.1011687099999996 20.3424282599999984 15.1916983499999994
  1.8741936400000001 34.5724432100000030 24.0531062999999996
 10.5575543399999994 25.8157731000000013 25.6984375999999983
 13.6407475100000006 10.0433177600000008 28.0415827399999991
 19.8810317599999991 30.5008287699999983 17.4290706899999996
 15.3911323600000003 28.7616378200000007 11.8467672799999999
 28.6176075400000016  6.1298980600000004 20.1967208199999995
 16.2867906299999987 32.0901963800000019 24.9305189899999995
 22.2326864700000009  4.7614762199999996 16.1308449600000010
  1.1112905200000001 22.4597793000000010  6.5106404800000002
 14.3345293900000001 15.4354384299999996  3.4137110100000001
  9.2409093900000006 16.9641299900000000  6.1327097799999999
 32.4533558299999996  3.5515115300000000 15.2543018700000008
  4.0515899299999996 20.0719220100000015 18.7932194499999987
 17.6393481399999992 14.5241546199999991 17.4667535200000010
 18.7264076700000004 14.7336832300000005  4.0141131100000003
 20.1990324699999988 20.1386485700000009 20.2665413900000004
 34.7610926300000003  9.6838341499999991  6.2006186500000000
 18.7975945300000014 21.1712178800000004 14.6588749299999996
  6.7109047400000001 20.1758812399999989 16.0360655299999983
 18.1533400500000006  8.1862140500000002  0.6995131800000000
 31.7179386900000004 33.3956150799999989 20.1026823800000010
 10.7827459099999992 30.6104586500000018  4.9784675900000002
 23.1047722600000007 31.9073659200000002 32.0990405699999997
 33.5747937399999969 21.5584425899999985 12.7445959400000000
 33.4239340499999997  6.0596505000000001 29.5459121300000014
 33.1452481600000013 12.1858301499999993 22.2473917499999985
  6.9130911599999996 23.3231549200000003 27.2647236299999989
 18.2100854199999986 16.9055762799999982  2.0205034400000002
  8.6012682799999993 11.5160229699999999 34.7980837799999989
  1.3940944799999999 15.5459787899999995  6.2655381400000003
 24.8994383299999988 24.8600267099999996 27.4689250800000018
 20.2238198099999984 16.7395321899999985 11.3175842099999997
 24.6377429600000006  1.5459241100000001 12.3464719400000007
 27.1539010999999988 10.6158307000000001 25.2666330499999994
  1.3015960200000001  0.9243633100000000 30.7742129099999993
 27.1963116800000009 23.4103938999999990 23.4903158199999993
  1.7379373100000000 19.5124260199999995 30.3441083800000015
  8.4295125599999992 29.8176367599999992 15.0211091700000008
  4.7818407199999999  8.3969907500000005  8.2236163700000002
 34.3203010300000031 21.2994734900000005  0.2509504600000000
 17.7243886000000010  8.7991878900000007 12.9508229700000008
 34.4816312199999970  2.7759393100000000  0.2120356900000000
 28.6838273100000016 34.0855866699999979 31.4551844000000003
 27.2841922600000011 30.4192359199999984 11.0980492500000008
  9.9137605900000008 20.5742964099999988 27.1997315200000003
 10.8876410600000000  8.5833286399999995 25.0044037500000016
  4.0137784300000003 14.5740252199999993 15.6418653699999997
  7.8313467599999997 21.4450259500000016 31.5511250899999993
 29.7594249899999994 16.6558057700000006  4.1275867000000002
  2.3495900100000000  9.5592696600000000 12.6452373399999995
  8.5040509899999996 22.5849554400000017 10.3460751999999996
  6.4858658000000000 17.9464838799999988 31.5545441699999998
 17.2237977700000009 30.3691570999999989  9.4232981200000001
  2.3714754000000000 27.3870809599999987  9.6697286499999997
 14.1293673099999992 32.2764129700000026  4.6727719700000003
 30.2784862100000005 25.5177558100000006 21.9218977799999983
 31.3359199400000001 17.8063544799999995 21.3997572200000015
  5.7195204700000000 17.9804766299999983  7.8706563100000002
 17.1205483100000002 10.0553804400000004 20.7790608399999996
  3.6755854800000001  0.5651510100000000 13.4929698100000000
 11.3436245299999996  7.2975470600000003  9.8734799700000000
  8.5778983899999997  3.7382160600000001  3.1972593499999999
 11.3379397199999996 16.7529572199999990 26.9520056100000005
 12.3583551499999995 16.8749399699999998 12.1160782800000000
  4.9276748799999996  9.4316492099999998  2.7282120900000000
  3.0605275800000000 23.2870429899999998 15.3315093600000001
  6.6778962599999998 25.4025223300000000 10.1928689699999993
 21.5487467899999992 24.7873005599999985 30.1604659499999990
  1.9511940600000000 33.7185587999999967 22.8177640599999982
  3.1605567799999998 24.4777586900000017  7.6902872799999997
 30.6582794900000017  3.7033889699999998 12.8584848800000007
 22.5554173200000001  3.8988505899999999  7.9818730100000002
 31.3396289400000008 10.1435421600000009 32.5130733000000021
 27.2229103499999994 15.4542495399999993  4.5719889800000004
 16.4188352699999989 11.3644211500000001  6.8262113400000004
 33.1340022099999985 33.1751776199999995 25.2102180900000015
 33.1354732300000023 22.8986389800000012 32.4252734100000026
 21.5702607300000011  1.3721344900000001 31.4644222700000000
  7.5450752400000001  5.0795329699999998  6.7106857000000000
 16.4946310700000005 25.2643455699999997 32.8559657799999982
 15.2169118799999996  5.6378877999999997 10.9802614799999994
 25.2547093599999997 10.9001326100000000  8.5288145699999998
 18.7864594400000016  9.0237890699999994  7.8229245199999999
 19.8923417799999989 10.5882723199999997 17.0928260300000012
 34.1270044999999982 27.5645544499999993 17.4665768499999992
 15.7570831699999996 19.2968617199999990 12.3548723099999993
 28.3389807100000013 13.2487743899999995  2.1512485099999998
  1.0337008500000000 13.4102543099999991 21.1442442399999990
 16.3128745799999990 15.4830182300000008 33.0873123499999977
 18.4585897000000010 28.5171471200000006 32.6917296399999984
 19.8999886900000007 34.1098951399999990 20.0076646700000005
 23.8200422900000000 13.4507005399999997  0.9239730900000001
 24.2156763300000009 12.8721587700000004  7.3723678499999998
  7.3865133099999998  0.1291497300000000  0.6194871500000000
 16.7204975599999983  6.4024533300000002 16.0330636499999990
  2.7008462799999999 33.1233938299999977 29.8801159500000004
 15.1087474799999999  7.7188184700000004 20.1819980000000001
 13.8404346300000007  6.1847849500000001 32.6806520100000029
  8.7184121099999992 20.3523794799999997  7.4419138000000000
 21.2452140299999996 33.3122300699999982 18.6508222799999999
  4.3701037600000001 18.3339311599999988 33.3809566300000000
 18.7380479999999991  0.3727226900000000 34.3501988599999990
 33.7921770299999977  0.1193944400000000 11.6623730900000009
  9.5045941599999999  3.7140864699999998 17.6513570999999985
  6.3587827700000004 17.0620670399999987  7.1607614899999996
 20.9183636600000007 34.9380974099999975  9.6032069000000000
 16.0984347600000000 16.3930943099999986 33.7360333100000034
  1.5118969499999999  0.4521085100000000  3.5876736100000000
 28.0303769799999998  6.5458731600000002 11.4901497500000005
 19.9468114199999995 16.0595027299999984 27.0624486399999995
 13.5743145700000003 13.5049912299999999  3.3875297999999998
 24.2133155299999991  8.1941492900000004 29.0671064500000007
  0.8581287600000000  2.5700761999999999  5.2707634900000002
  0.7220392000000000 25.3128383700000015  7.8744554000000004
 10.9719819100000002 26.0999464600000017  6.8001890200000004
 15.7768829400000001  2.0715781899999999 27.0146275399999993
 14.8450104199999995 20.0901172400000014  9.6004979699999993
  5.5694316300000004 15.4374170700000004  1.6687757599999999
 12.1141974599999998  8.3166955100000006 23.7015163700000002
 16.3856800699999994 14.1249341499999996 27.7682819300000006
 11.5143586899999999  6.8264443899999998  2.0508261000000001
 28.2343206900000006  4.2277904299999998  6.4737463000000002
 24.2541104599999997 28.8344591000000001 10.7541145199999999
  4.4026620000000003  5.5401692899999997 13.6252422600000003
 29.4467439400000011 11.4253326899999994 15.5665731899999997
  2.3956406900000000 13.5331483400000003 21.6241693599999998
 32.4143900199999990 13.6530236400000007  6.3683643999999999
  3.1005323400000000 30.6470215999999986 24.4919509300000016
  1.2193564100000001 18.7232584799999984 31.8052001500000010
 29.9989469799999995 17.3018790100000004 12.6804713899999992
  5.6826808700000004 28.8174255700000010  4.4715141799999998
  7.7387929000000000  5.8923464499999998 17.6668334099999988
 21.4691434100000009 16.8932286900000008  4.4945786900000000
 10.3841059900000001 15.6693955299999992 15.5307192799999996
 29.7989002399999983 15.1163024999999998 29.6960638500000016
  1.7451023500000000 34.9352436699999984 31.6403985900000002
 25.1790897099999995 34.9607671500000023  5.6135589200000000
 22.0848297100000011  4.7329828899999997 27.2434493999999994
 10.6541098499999993  3.6242003000000000 11.9343818200000005
 31.1552056600000000 25.5415763600000005  2.2739474600000000
 33.2350424999999987 16.3592497600000009 24.9107023199999986
  4.1739119200000001 10.9377003399999992  9.9296461800000007
  7.5634095099999996 33.2236479600000010 34.8512419199999997
 19.8230211199999999  0.5160081700000000 27.5493382900000015
  6.7285739299999996  2.1420234699999998 20.9883952100000002
 21.9583316599999989 13.6802076400000008  8.2498879400000007
 20.8665235799999991  3.6618654899999998 14.9732725200000001
  5.7912141000000004 32.9353706699999975 19.7748764500000007
 31.3485122099999991 19.4446840799999983 11.8053882699999999
 33.1607218999999986 27.2529109600000012 29.6745849600000007
 25.7494766300000002 31.4536677100000013  1.7931988600000000
  3.2932973900000002 15.4493140899999997 26.6218273399999994
 28.0521745399999993 22.8975138200000004 13.5147304300000002
 27.0742819300000015  2.4563275199999999 18.4966609200000001
  3.3800057099999998  2.7559758599999999 14.6863112900000008
 12.8338508200000003 28.5307788000000002 16.7992197999999995
 34.4871562299999965 25.6347148800000006 27.6530640199999986
  0.0469262700000000 18.6898399300000015 30.1396665500000012
  2.3756889600000002 28.2043745199999982 25.9226314900000006
  1.6675151800000001 25.9276288999999984 15.6588578500000004
 13.4239352499999995  6.0798034000000003 18.2557165999999995
 13.8289528100000005 23.2099198599999994 14.1230280799999992
 30.7329959600000002 34.4630416700000026  5.3413695700000003
 32.3983304400000023 23.7397833300000016 29.5383529699999983
 11.0984263599999995 16.2517892099999983  3.8212683900000002
 34.0578047200000000 19.5239766299999999 14.4752021299999996
 34.7222678199999990 22.1553274000000009 34.5876866899999982
  0.2502040400000000  5.1792665199999997  2.9324395600000002
  5.5117168799999998 25.4256671700000005 14.1880742200000007
  3.9634947999999999  9.4571586199999995 11.4649769399999997
 16.8673767199999993 25.0005018200000002  8.4341650999999995
  3.0127703600000002 25.6315166999999988  8.9011686200000000
 11.9410696000000005  3.5567383299999999 33.1011097000000021
  5.3507803100000002 15.5647138799999993  6.1462395900000004
 14.8488277199999992 14.2475227499999999 23.1148914499999982
 26.9806310200000006  3.4656220800000002  6.7103495700000000
 10.8452446800000004 31.0273523100000013 11.7101925199999997
  8.2056842499999991 12.9352342000000000 17.4812024100000016
 16.5689410899999991 14.1929083800000004 15.2112254700000005
 15.0664535100000005 31.8841737899999984 27.3089109800000003
 25.8669040300000006 10.0560091699999994 31.3461854899999999
 15.3394474400000007  0.0931521300000000 25.6078421899999995
 31.0037422599999992 34.8961313200000021  4.2790696900000000
 28.3242904099999997 11.3488946199999994 25.8718941800000017
 23.9254561499999987  0.1414415100000000 32.2074998000000008
  1.4491287700000000 30.5072689100000005 20.6686184500000003
  2.4703090500000000  8.4841805699999995  3.6227830900000000
 23.1154139500000007  0.7623260500000000  2.4138749399999999
  4.9961983400000003  6.1055213699999999 30.4975991899999990
 33.1495997500000001 15.3229769600000001  3.2737670500000000
  2.2028174699999998 27.7532249399999991  3.4514870400000000
 14.1427499000000001 12.1975390800000003  9.0393727899999998
 24.7384372200000016 13.9143386499999995 23.2896538000000000
 24.2114964999999991 12.6216117299999997 31.4283933900000001
 32.0077721899999972  4.6272370399999998 34.9728984699999970
 34.5045264600000010  2.5762889100000002  4.6877168500000002
  1.4570420600000000 23.5058880099999996 18.4597865100000007
 13.6318552900000007  0.5917921500000000  6.2506685900000001
 19.9869542399999993 25.7398824300000015 10.2040078399999992
 33.7597257099999979 14.7100906899999995 27.4942451299999995
 25.7778742100000002 18.7317660900000007 34.7926926000000023
 15.7845000399999993 25.0921959900000004  9.5379581899999994
  4.4633478899999997 10.4880682600000004 12.9631912699999994
 32.3557119999999969  7.4516071500000001  9.1614209700000000
 11.0023104299999996 10.8313372000000001  7.2842644999999999
 31.6334188400000009 12.8705017799999997 14.5234459299999994
  5.5557630099999997 30.7089436400000011 15.2158080000000009
 22.0850881500000007  9.0765787000000007 20.0581799200000006
 32.8299014799999966 32.1541671499999993 15.0873093800000007
 32.4088218200000000 25.0683523199999989 28.7974858000000005
 19.3437997899999985 31.2430324400000003 31.6461988100000013
 17.6633277799999995 32.5499659700000024 17.2781283700000010
 33.5035510499999987 14.1824480099999999 14.4036578700000000
 22.2778773799999996 29.2850988799999996 24.6569499000000008
  9.3569681399999993  7.5635199799999997  0.0802975400000000
 19.5607231299999995  2.0736054500000001 26.0868043699999994
 30.9210695700000002 10.4163465399999993 32.5363280300000000
 33.0651778800000002 31.4446882800000012 25.8759116899999988
 21.4477308499999992  7.0124692599999996 13.5709237300000005
 26.5150529500000012 18.4948957100000015  8.7122355700000007
 21.5432610999999987  2.5892270800000001 12.1395126700000002
 13.7893948000000002 23.3584425200000005 25.3434642500000002
 32.6035698900000028  8.1991209099999995  7.6251030599999998
 20.1071056299999995 15.1243318099999993 24.6447402400000009
 14.1492530999999993 16.4968946400000007 28.3081308800000002
 19.7556850100000005 23.7979688799999991 27.4629143900000017
 24.2021410999999986 30.3854705400000000  3.6034358200000001
 12.9458935499999992 21.6328210600000013  2.8236350400000001
 31.8340507899999992 24.8915548000000015 32.3615908700000006
  1.2577972500000001 34.7984150600000035  6.9618518399999996
  2.8438417199999999 21.4478009000000007  8.1897899899999995
 25.8003940999999983 12.2236707500000001 28.2342409600000011
  2.8877594800000002 24.5736604300000003  9.5108442199999992
  3.7588711699999999  0.3477248000000000 34.2107789000000011
  0.5609810400000000 13.4084200700000000 25.3161365899999993
 28.3076897000000010 12.3408653800000003  2.9244152200000002
 10.6465869800000004 17.1874048500000001 13.7132376899999997
  3.3859208000000001 32.1708227000000022 15.0170892699999996
  7.2192993400000001 24.7640430100000017 24.2708097500000015
 29.4994481099999994 22.2244102099999985  5.6623196800000004
  1.6068861299999999 21.9351730899999993  9.4540853600000005
 29.8127007599999985  2.0616341500000002 34.8852120999999968
 30.7597500100000012 29.1184784699999994 24.2675682299999984
 10.0191916600000006  7.5542999899999996 20.1199079999999988
 20.2938018299999996  2.9273146799999998 24.3777490999999991
  6.8291008599999996 11.6980713499999993 14.4850967700000002
 26.0214228799999994 17.0543326399999984 17.1687204099999988
 14.6838886800000008  7.1171256200000004 22.5302750299999985
  1.3324735299999999 29.8825738200000011 21.4182418900000009
  1.3913961900000000  5.1958473300000003  1.6060089099999999
  7.1918195400000000 17.9110923299999989 31.7287231399999996
  4.6498660999999997 30.2995388699999992 29.3497492300000005
 26.2352305399999999  5.5196081000000001 18.0533946199999988
  8.4034621800000000 11.9888222199999994  1.1350183500000000
  1.2534814700000001 32.2630769100000023 25.5336958000000003