Na Cl 
 1.0000000000000000
    35.0000000000000000    0.0000000000000000    0.0000000000000000
     0.0000000000000000   35.0000000000000000    0.0000000000000000
     0.0000000000000000    0.0000000000000000   35.0000000000000000
 16900 16900
Cartesian
 21.4417782499999987 11.9670518599999998 20.2405550500000011
 18.0087951699999991 28.8205024300000012 21.1843273200000013
 24.9893267600000009 30.6148033599999998  8.0000189200000005
 21.3180166900000003 31.9064834099999999 17.2666620699999989
 15.7894605800000001  3.4639250100000001 13.1875772599999994
 23.6109352600000015 33.9889052300000003 16.5301547599999985
 27.3111336599999994 28.2234167199999995 30.9648626100000008
 11.4458739299999994 10.8031391699999997 23.3600783999999990
 17.8376559800000010 22.4840725900000002 29.8080984999999998
 29.7115527700000008 17.0674793300000012 28.1250861199999989
 23.3223940600000006 14.4769058400000006 28.3565267699999985
 28.1454289300000013 15.2239484399999991 18.9013710400000008
 15.3431140500000005 26.7178662799999991 32.1786146600000009
  5.9766261199999997 34.1551445799999982 10.5149445499999992
  9.6730499999999999 34.9512982399999999 21.4695445700000000
 23.6355675400000003 27.9836861500000005 26.8131237899999988
 23.1715462700000003 34.1780774899999997 10.9483300200000002
 13.5827251100000002 14.8609987399999994  8.8057665400000005
 18.5181677399999991 14.8451353299999997 22.1894625300000001
 13.2967894999999992  4.1410572300000004 18.7488042200000002
  6.1525391999999997 15.7263381100000004 27.5645488900000011
 17.3731691300000008 20.8535816800000013 31.1473413199999989
 33.3655478100000025  4.7620021899999996 24.9708855700000001
  0.6737539900000000 18.7833050300000011 26.0076506499999986
 30.5845311799999990 24.2155797399999990 11.2486175900000003
 20.5159064899999990 25.8404505600000007 20.4525328699999989
 10.7199221799999993 24.7320897299999984 12.2320427100000000
 28.9418729100000007 31.0579375000000013  0.7555953900000000
 29.2916510599999995 29.7794438399999990  3.1125941899999998
 23.3705296300000001 18.4915528199999990 22.5281785399999990
  1.0966721100000001 21.7681735399999994  2.6927086299999998
  1.3539517599999999  5.8672426299999998 15.7469144500000002
 23.3911448499999999 14.9714549500000000 10.2433296100000000
 29.6406902700000003 16.0812847999999988  8.1535886000000009
 12.3636169000000002  0.3093124700000000 18.6147135100000014
 27.4900305399999993 24.9433235000000018 27.4380403900000012
 26.1448092900000013 25.8097432200000014 29.3543516099999984
 33.5875033000000016 25.1679215499999991 22.2575487299999999
  2.6215835300000001 30.9543110800000001  9.1062554200000001
 28.8348450700000001 17.2411572000000000  7.1291202199999999
 14.1235770899999995  4.9600896499999996 29.2268177599999994
 25.1261044600000005 19.4376148899999990 32.9935113399999977
 16.9450541299999990  0.5248278300000000  0.7813590400000000
  7.3013396100000003  3.6147965599999998 28.8857852400000006
 33.3924609500000003  2.0912006500000002  6.8093365199999996
 29.5188633100000004 33.5356413599999996 28.5243589899999996
 13.9015278500000008 17.9785656399999993 10.7526456100000001
 14.7148106199999997  1.8220500200000000 33.1946707500000002
  2.8313486700000001 21.4771140600000017 10.8560564799999995
  2.7412459899999999 12.1213466600000004 23.4732600900000001
 30.0822539499999984 17.4421961400000001 25.9905764999999995
 23.6193149200000008 34.8258287999999965 12.7045929100000006
 26.0929912799999997 29.9044029400000007  3.3001973300000000
 26.4165014499999984  7.1399497700000003 21.1357728400000013
 13.9340388700000002  4.3912490599999998 23.7229024700000011
 25.8218625899999985 23.0445336500000018 34.4770076799999998
 30.0681146000000012 24.8020068999999985 32.3298858799999991
 28.3919720399999989 28.8740999100000018 11.9971203000000006
  0.6009576900000000 20.2958816300000002  2.8826190199999999
  8.1778223299999997 34.6598866400000034 23.7147876400000008
 29.4359126099999990  4.3832793499999996 29.7759622099999994
 14.5969052200000000 15.1860970399999999 12.7329109299999992
 12.0340718700000000 26.6458592400000001 11.9561827899999997
 12.5640962100000007  9.7650773100000006  6.6543498300000001
 14.6575823100000004 19.9858037000000017  6.4028414500000004
 22.5562641699999986 18.1318857300000005 32.6033901699999973
  5.1785728200000003 26.2734581399999989 18.0110310700000014
 31.3991666100000018 30.7932972000000014 32.9460857099999984
 24.8624897400000009 33.8649791400000026 33.7043344000000005
 28.7482449899999999 31.7536175699999994  3.0504233300000001
 28.4649652099999990 30.6702383000000012 29.6951562899999999
 21.4917043300000010 11.0745973400000004  0.7575735200000000
 27.5382242099999992 29.9342317700000002 14.6333851300000006
 33.3039430800000034 19.3714244600000001  5.5308839900000004
 32.5672435700000023 27.6627244999999995 22.4106306800000006
 20.4697663200000015 20.3624611000000009  1.8837865600000001
 20.8007370999999992 17.9884178199999987  1.3382314500000001
 21.6559819000000005  7.0878325999999996 20.2025772799999999
  9.7163367100000002 27.4711360700000000 22.3839297700000017
 26.7075921799999989 34.5017121699999976 25.2763740699999993
 25.0190275200000016  4.7955048199999997 28.0495875400000010
 14.4177280799999998 13.7558116600000009 18.9265613100000003
 18.7159201999999993 13.4708557399999993 24.6724006899999999
 24.0383654699999987  7.8085135000000001 22.6864052299999983
  0.4127347300000000  6.8326210100000004  0.8613141000000000
 21.1061203299999995  5.5644231800000004  1.2603546600000000
  7.7807567700000000 11.1789562300000007  4.7172836199999999
  8.3858231700000001 30.5299852499999993 17.4621161100000002
 10.7854745399999992  6.4706346000000003  6.9556500999999997
  3.6112384999999998  4.0853977600000002 28.2801046499999984
  3.7189204500000002 28.8960746099999994 31.3260292299999996
 26.5732148499999994 16.0219949700000015 26.6693794599999983
 22.2606547500000005 19.8244447800000003 24.4434495100000007
 26.0559615700000009  2.5460409700000000 21.3106010499999989
 12.2718268800000008 32.5943047399999983 27.4796909499999984
 26.1657986899999990 28.5786417700000008 16.2322319399999984
 25.1222510999999997 24.6742918799999984 20.8235598099999990
 16.5698104000000015 28.8034093099999993 13.9002647800000005
 31.7500868700000005 13.7099524400000004 18.1707291399999988
 20.4447168999999995 19.3568968599999991  6.3655767699999997
 26.2487554000000003 22.8320813399999984 33.7911625899999990
 18.0696098800000016  0.9332142700000000  4.5321656700000004
 12.1084405799999999 16.5608184999999999 17.6765711000000003
 10.1304207000000002 21.9807402699999983  5.3017665699999998
 31.7908258400000001 33.4098848599999982 14.9348028700000004
 24.2317617900000002  3.2203886900000001 15.0726442800000004
 30.9324268899999986 26.2987144199999996 22.4932250600000003
  8.6336253599999999 30.3415043699999991 34.6640252099999984
 23.2717618299999991  3.5011018200000001  8.0183675399999998
 14.7031838500000003 16.4109144399999991 18.2389757400000008
 12.4651864200000002 27.3882097999999985 28.6421782100000009
 34.0892503299999987 23.0303184999999999  5.5630768399999999
 13.6324036700000004  9.8084767799999995  1.0691864499999999
 14.8166106099999997 32.7744914199999968 10.8773100899999999
  9.9507090599999994 11.5671526000000000 19.1337415200000009
  0.7937256600000000  5.1472063300000004 24.0967381399999994
  8.8779840100000005  7.2772184800000002 18.2110603100000006
 33.2905499000000020  4.2722484400000003 18.6796029200000007
 33.0862126299999986 34.9756404000000032 10.5882235199999997
 16.2727007899999982  5.2821849700000003 17.6828416299999986
 10.5192525900000007 12.0782747500000003 34.5637264000000002
 17.5495392000000017 10.1053000799999992 19.7784067800000010
 20.6826828700000007 28.8510006899999993  8.7686253099999991
 24.2856251199999988 33.5014123999999995 13.2382819099999995
  0.8040527500000000  3.7146322500000002 26.8242140599999992
 34.5656870299999994 15.5019191200000002  0.7546317100000000
 13.0951364100000003  9.9576373199999999 23.0104180099999986
 21.0955166900000002  2.3490730800000001  0.8712562800000000
 13.2043085599999994 24.8139088900000004 22.3667578800000015
 18.0996601400000010 15.9879189200000003 13.9532472599999995
 12.2266722300000001  8.6801605800000008  7.4588376600000004
 25.6845870100000013 25.8539246300000016  1.9111883599999999
 26.3426926600000009 26.6356125599999984 14.7402925699999994
 10.0972547400000003 24.5604641500000014 32.7209310499999972
 20.6882396100000001 17.2431042000000012  4.8522266600000004
  1.3734050600000001 17.8189055799999991 22.3461575100000012
 21.8693017900000015 22.3551427899999986 32.8849272900000003
 11.9730173499999992 15.5026454900000008 12.9628285900000009
 26.2601051699999992  3.5876229099999999 27.1782027600000013
 34.0538111899999976 22.4046425400000011 24.8271969299999995
  0.6988571099999999 20.6914453099999989  1.1212780600000001
 15.3202950199999997 28.1983802799999985 30.1773410200000001
  5.5704418100000002 32.4154338299999978 31.1964173199999983
 18.1858214199999999 29.1006316699999985  4.3164879000000003
 27.2121531200000000  9.6574498000000002 17.7588494600000004
 27.9829142500000003 13.8398601800000005 31.5300975699999988
 26.3498207200000003  6.4368990999999998 34.9631373900000000
 10.4501697700000005  6.0033678400000001 28.6032217200000005
  9.3474463599999993 22.5308996599999993 11.8305695899999996
  1.3831443600000000  6.5073012500000003 28.2121050099999984
 15.8489310700000008 22.9845697599999994  6.6638942500000002
  0.0706815700000000 32.9451022300000034  8.3331587299999992
 20.3987318299999991 16.4858318799999992 17.3763720100000008
  4.6843668799999998 15.1541024699999998  0.0002971300000000
  4.9938888300000004  2.2895473300000000 15.4220128200000008
 22.7694283700000000 30.7826841400000006 29.5724081599999984
 23.4639372199999983 13.3928629200000007  8.8471182499999994
 13.5165064000000008 21.9231151199999985 16.7957709800000003
 11.5228741100000001  9.9451459199999999 23.0673973900000000
 33.7478642700000009 25.3547389299999999 12.0971485399999992
  1.7755119399999999 21.0291270300000015  6.5380119099999998
 19.3661665499999991 22.1611572999999993 27.5707383999999998
 16.4003301599999993 15.3490460700000000 21.4173190399999989
 20.8810584599999984  2.9496162600000000 14.2004561900000006
  2.0671229900000001 22.1361527000000002 27.3184621999999990
 11.3942291499999993 17.8093256500000017  1.3361802000000000
 22.1805905199999991  4.1849283100000001 21.0901484900000007
 17.1257099599999982 26.8073183399999984 30.5993789400000011
 28.7618288799999995 15.0579657099999995 29.2297716200000011
  4.7716212899999997 11.6390996700000002  3.3481370300000002
 27.1391427199999988  7.5717748800000004 33.8203411200000019
 18.4732730099999998 30.2995139599999987 28.9311949999999989
 26.5943206399999994 20.7469771099999996 24.4443393600000007
  6.0116053699999998 27.0515373900000000  5.1889431999999998
 25.5684233499999998 33.4912927700000012 18.1576208900000005
 10.1342614399999995 16.5320469500000016 24.1130372999999985
  2.8178913099999998  5.2992295699999996 24.1514356300000017
 18.1786569000000000 13.6865795499999994 10.3425204100000006
 16.7405368299999999 28.2024671699999985 28.8657056099999991
 10.9142139500000006  0.1938382100000000  2.8387474300000002
  5.8279864500000000 20.9682157499999988 32.8020328200000009
 18.7656894299999983  9.9421670100000004  8.0008610099999995
  0.4710663300000000  7.2118057499999999  3.8192131300000001
 34.5150282999999973  4.0807164199999999 19.6009492499999993
 13.1540052099999993 19.3655955599999992 12.5645415800000002
 17.2502951300000014 20.7103078399999987  3.1437828600000000
 22.5584766099999996 20.3163748200000001 32.3116602200000003
  2.0732794200000000 20.6072501999999993 21.0540790199999996
  5.9060649099999996  3.2329631399999998 16.4115761300000003
 29.3599725300000003 23.0583152799999986 21.1048626699999993
 19.4268868200000000 27.6867597100000005  6.3705192000000004
  4.3161560500000000 21.6348084599999986  1.2257963999999999
 21.9600669999999987  7.8461509899999999 25.2596269599999985
 23.5503486500000001 30.7097447099999989 28.6793936400000007
 29.5689640199999992  0.5782709800000000 24.0003758500000011
 34.3169130699999982 34.3580195700000033 25.2349139200000003
 28.1982796399999991 28.4858669599999992 31.9659793599999986
  2.2151744299999998 25.4366553599999996 23.8666357200000014
 26.5464865100000011 21.7988085500000004 27.5752199500000010
 21.7217383700000006 27.2567142500000017 23.5964167600000003
 34.9764470000000003 24.1446690299999993  9.4524329799999993
  2.0410251000000001  3.5088528299999999 33.2895360799999978
 22.2328729500000009  7.8957023199999998 18.0688626600000006
 23.3746699699999994 18.0781106800000018  3.8062069300000001
 25.9198781999999994 25.3928938500000001 23.3668752600000005
 27.0725547800000008  8.4281674100000004  7.2096821499999999
  3.1278778900000002  0.2436691500000000  0.3474048100000000
 28.8325762099999992 14.1083469400000006 28.9870608700000005
 20.5319801200000001 15.9898124399999997 10.7776125799999996
 14.3345987899999994 16.6018022400000014  6.4902779800000001
 22.1020761199999995 14.5932905399999999 24.4341013199999999
  8.9408943099999991 14.6106659800000003  1.4630567600000000
 19.5949517600000007 17.3542040700000015 17.1078277700000001
  6.2612774299999998 23.2896857500000003 24.7483854299999990
  6.1138783500000002 30.9534959699999987 30.4068221399999992
 12.4597235099999999  5.5730805700000001  6.7651987800000004
 22.6958660799999983 19.4211572399999994  1.3897036000000000
 11.7484038099999992 20.4229103700000003  2.8545985900000002
 27.2385743299999987 33.7188326400000022 27.4202170299999999
  6.5876301300000000 13.2995819199999996 16.0733674999999998
 15.0875844600000004  2.0320929300000001 28.3859421400000009
 32.5294660699999980 22.7362309300000014 32.8331889299999986
 17.4063383999999992 18.3294641600000006 28.3041616000000005
 23.0439482300000016 24.6379701699999991  5.3646835900000003
  4.2371295800000004 23.4367863400000012 12.0679507699999995
  1.0486197500000001 19.1521770199999999 30.6391759300000004
 32.6298380499999965 29.6880935699999995  7.7885747900000002
  2.5764958299999998  8.1654422899999997  1.5885813600000001
 29.2868585999999986 19.2324080100000003 14.0814717599999994
 32.2958288999999965 15.9963296600000007 15.3125418399999997
  2.8907799900000000  5.3392480999999998 31.7428791100000005
 32.5691828100000009 25.2554436200000012 23.2409081899999990
  9.9439144800000001  2.3706030100000000 12.7248085999999994
 15.8582207700000009  4.1165276400000002 26.4800116400000007
 24.5556783299999992 22.2856557799999990 20.0167318600000002
  1.2124044100000000  6.8808873600000000  7.0739186199999997
 31.3501942299999996 12.7143516200000004 15.1076291499999993
 23.9230491900000004 29.6876823200000004  0.8766776500000000
 34.3212082499999980  1.5471191399999999 32.4313225000000003
 18.2373018500000015 19.3322064299999994 11.3934388500000008
  4.5268030599999998 26.9790330199999993 11.6080272200000003
  6.1135344299999996 25.1731744299999995  5.5426332399999998
 20.0369099300000002 25.3451458699999996 25.8666632700000001
  6.0096197399999998 28.6789597100000009 22.2757661700000007
 28.8019450699999986 24.2907553500000013 14.7252269099999999
  1.8886560999999999 32.6431544300000027  8.4965447600000008
  1.4278352900000000 22.6277903699999996 30.2727695700000012
 34.4381945000000016  7.7349148899999998 10.7145780500000001
  4.9133107699999998 13.0140628399999994 12.3540741599999997
 14.9244272700000007 24.8491412400000016 19.5168997799999993
  0.5345814200000000 24.7099851100000016 25.7196941599999995
 20.8997906200000010  2.7810115899999999 15.4617802799999993
 26.1410892100000005 33.2862879600000028  2.6416777200000001
 18.6774451699999986 31.8210088599999992 15.6959656499999998
  7.0946619499999999 29.9834044700000000  1.0788434600000001
  2.1219694300000000 33.9402072000000032  3.0624276799999999
 20.2220731700000016 22.3837602699999998 23.8587937699999983
 34.7468280499999977 14.9390950799999995 26.3710073800000018
 12.5210868000000008 21.9057641099999998  5.1774260099999996
  6.9988715900000003 30.0348367799999991 25.5017977400000007
 33.7146494300000015 27.1129679500000016 22.6523805699999983
 23.5602814999999985 22.6512490200000016  4.5423607300000004
  8.4568168900000007 33.7215332399999994  2.8092455500000000
 34.9899664200000018  6.3656520199999997 27.5134575400000010
 33.6809563400000016 20.8332026900000002  3.6376780499999999
 28.4549438899999991  2.2418803600000001 19.2831977600000002
 27.7047408399999995 28.5792722599999998 26.8289402599999995
  8.9989522500000003 10.3904108999999991 16.6359308699999993
 20.0900855400000005  9.0677178900000008 11.1345037799999993
 27.6051086499999982 34.0610450699999987  3.9845106299999999
 12.6700862300000008  6.1392675700000003  2.6700792600000001
  6.0221068200000003 28.5493907600000014 14.6104335600000006
 32.5569158599999966 29.0848894999999992 19.7378965300000004
  4.8269847700000001 32.1330850100000021 10.7597894000000007
 29.7804327800000017 19.7336893800000013  4.1173429199999996
  5.1824580700000000 21.5728483199999985  9.8617814599999996
 21.9609540999999986 22.7555018199999992  6.7191065200000004
 18.0232100200000005 26.0908108600000013 28.2581723899999986
 20.1033068300000011 21.2778288199999999 21.4689807500000001
 14.1594779099999997 13.3451802900000001 12.4450632700000003
  4.1783146699999998 14.9346912100000004 22.3551158399999998
 32.4318587799999989 27.2504617399999987 23.5105436200000000
 26.7066915400000013 19.3647313799999985 33.0403263700000025
 33.7653700999999984  4.5753516799999998  2.9357086600000000
 25.4554509200000005 24.7635912199999986 16.6776662900000012
 21.5373916100000002  8.9408165799999999 13.3043275500000000
 25.8331488399999998  2.7325975699999998  6.7674340700000002
 25.2643951099999988 33.6886914700000020 10.8375703100000003
  7.0441693499999998 21.3542981400000009 11.6887700100000007
 33.1575579200000021  9.0759797899999999  9.9923342300000009
 11.1613700900000001 24.1470526200000002 14.5133866999999999
 11.4902603499999998 21.8056523800000015  2.5995646200000002
 10.8825231799999997 27.5671477100000004 26.0515489900000006
 33.3838745799999970 32.7801126299999979  0.3530526800000000
 18.7564567099999984 29.7678436700000013 18.1485008199999989
 31.8532933500000013 33.3013943500000025 11.5348097500000009
  0.5473948300000000 30.0649009400000011  5.7901586500000004
 15.1963960300000007 10.8280937399999999 22.7714112200000010
 29.1084210100000007 30.2319231600000009 12.9325621700000006
  7.5723607800000003  8.6675963199999995  6.2913815700000004
  4.2499795899999997 29.4069330600000001  7.3239411900000002
 33.4796029099999970 31.6861296699999997 23.7813398499999984
 27.9788071000000009 14.8110093900000006  8.6348522600000006
 15.9618742499999993 31.2205796599999985  4.2823087500000003
 12.7631844900000004 30.8417944999999989  8.0401780600000006
 31.2725932299999982  3.4744502000000002 15.0845363199999998
 20.8019319799999991  3.0708030700000002 20.9872289300000006
  2.3566811400000001 23.7398468600000001 30.6061045299999996
  1.7988627300000000 28.4858962799999986 32.4587666999999982
 24.4920048699999988  2.1257673700000002 27.7721922799999987
  7.2355901700000000 18.5639756899999995 14.7394798999999992
 31.4386359800000008 29.1549077499999996  6.5346096700000000
 32.1847561499999983  4.1965362900000001  6.1854509400000000
  8.8739644599999998  9.7207034100000005 30.8622094300000001
  1.1538413800000000  2.6119971000000000  9.8353124399999992
 32.0961553200000012 20.0824924200000012 21.4500407099999997
 10.8341956800000006 20.3267843799999994 32.2651361400000027
 25.1430354899999990 23.9975139599999991 21.2171433000000000
 16.5273820100000002 15.7094483500000006 23.6984965900000013
  0.6321450000000000 19.4610930099999990  7.5901664699999998
 27.9278430299999982 33.2578607199999965 14.8650396199999992
  6.7208467199999999 12.2707823900000008 15.0396802199999993
  1.9055079500000001  0.8720620100000001 26.7462361500000014
 18.9910440700000009 17.4777253299999984 28.1296766200000015
 30.4749770099999999  2.9385548199999998  3.2908850699999999
  9.9054342500000008 20.6333747199999991  5.1289689500000000
 32.5810949399999998 15.4626956799999995  6.5262441600000001
 31.5855976699999985 14.1401019399999992  2.6932816100000001
 10.9839860799999993 17.8540412699999997 17.8716625499999999
 34.0324713799999969 13.7464011300000006  0.7637388700000000
 26.1591575399999989 21.9608025900000001 20.2091143200000012
 14.5843562599999998 14.2755806399999994  4.6838882499999999
  7.1098079600000004  4.5424431199999997  9.8414972699999996
 31.0447004699999987 23.2808749100000014 16.6645569800000004
 11.2091311699999991 21.8674986400000009 27.0496800899999990
  8.9732346199999995 33.1542806900000002 23.9955582199999995
 23.3469402499999994  7.0248258799999999 11.2486017700000005
 20.2499273399999993  0.5287205100000000 31.2056580699999984
 33.4951887599999978 13.6375262700000004 25.9040953499999986
  5.1305908599999999 24.8405347300000017 14.8672430299999991
  8.7535825200000001 16.4613403500000004 25.7471894600000013
 28.0132420000000018 33.5583765399999976 25.6345115499999991
 24.2356016200000006 32.7563556799999986 21.0698502400000010
 25.9730608600000004  9.2338005600000006  2.4860725000000001
 28.4205152800000000 18.6002474599999985 29.3590562800000008
  7.6589163300000003 28.4067785300000004 32.7267762099999970
 13.9276831800000007  2.5711698900000002 23.6523613099999999
 30.2366063499999989 21.6429447900000014 32.9730507100000025
 23.0633109400000009  0.0668955900000000  4.3141765799999998
 23.3657736400000005  8.5575564899999996 11.8520013599999992
 11.5868589100000001  0.3377839500000000  7.1347784299999999
  4.2211247199999997 34.4431052799999975 20.2703572200000011
 28.8938450799999984 28.8541949799999990 27.4550531299999996
 32.0778839800000029 27.9959938400000006 23.6684852200000009
 21.2310204499999990  4.7606992600000000  3.0723913299999999
 12.6810178800000006 14.8675904400000007 14.5925235700000009
 11.5435624400000005  7.6538662899999999 13.5306648099999993
 14.8835202599999992  2.3250634799999998 17.3419746000000004
 21.5670224499999996 16.9463887100000008 22.9550064700000007
 34.7937326500000026 33.2646175200000016 23.4266358699999984
 16.4690275799999988 14.9464976000000007 10.7851559600000009
  1.1162631999999999  1.0355808900000001 10.0080853699999999
 30.8908929900000011 28.2384653099999987  3.8863900199999999
  8.5571145499999997  4.4243073500000003 19.3336437600000011
  0.5507015300000000 15.6405751599999991 21.1467863200000004
 24.0377287399999986 32.1068927000000031 25.5456540300000015
  0.8072716900000000 22.8152315200000011 30.5962214500000016
 10.6939190300000000  7.6971038099999998  5.2238032600000004
 16.4613438999999993 25.8069046600000007 16.6465655400000010
 23.8269848899999985 25.1350181200000016 29.2496230699999984
 23.4149473599999993 30.0202719599999988 25.7108505600000008
 12.2653771000000003 29.1928685299999984 14.5413665200000004
 26.7471663399999997 34.6246471199999988 26.4441196599999984
 16.3190539200000018 14.3392513499999996 24.7974836900000000
 26.3083306800000010  9.1137765700000006 15.2428786200000008
 22.0609299000000014 23.0488460199999992  1.9550959299999999
 29.2973503599999994 20.5675511600000007 18.8323466199999991
 10.2496729700000007 31.2536836999999998  0.6619516900000000
 30.4220195599999990 22.8827150699999997  9.7921675199999996
  6.9594469300000004 32.4245968099999970 10.1986244599999996
 13.2813403500000007 24.4873261100000015 28.4898917900000015
 29.6112454700000001 11.2025428500000004 16.1377175800000003
 11.6193830699999996 21.9712492399999988 20.7860388100000009
 15.9543158100000007  9.1858104600000008  0.9164615500000000
  2.9692573200000001 29.3077112200000016 19.7025453800000001
  5.6802186800000003 22.4353415799999993 15.7859514200000000
 14.4855802199999992 34.1467985800000022 10.2436718199999994
  0.3922499000000000 12.5441022699999998 23.7268431200000016
 22.0523167899999990 18.2882504899999994  0.6259501000000000
 20.3432634899999982 29.2294264400000010 33.9702076900000023
 17.2805717200000011  4.5689801299999999  0.8491024900000000
 25.8655345399999987 22.0390876300000009  5.9458347800000002
  6.6451645700000004  0.2809225200000000 31.4648110599999988
 14.0795065899999994 34.2672984100000022  5.4843193899999996
 19.9560272500000018 30.9500419200000003  7.3546107599999999
 23.9431047600000007 16.7616190799999991 32.5319046099999980
 28.7208527499999988 26.3721808300000014 32.2432634099999973
  7.5280623100000001 34.1431712099999984 19.2785640700000016
 19.8262621400000008 19.9877730100000015  4.5009483699999997
 12.4392110299999992 10.8197146300000000 21.9438010299999995
 14.4639507599999995 20.6203989499999985 32.0452329399999982
  4.2300385800000004  9.2584005299999994 30.9376642599999983
  9.3232982300000007  1.6732731199999999 17.7013108999999993
  5.9322711600000000 23.6813026099999995 26.6530473999999984
 27.7676970700000005  1.6846345599999999 33.6529812699999979
  5.6562821999999997  5.1348781299999997 26.8967816800000001
 29.2096978800000002 17.3922604700000001 26.7216904100000008
 26.4507938799999991 23.4926827200000012  6.5183939600000000
  4.6473342200000003 22.7461604599999987 24.7188129600000011
 34.0894981400000034 27.1953165599999984  6.6854819299999999
 12.8947428100000003  1.9424331399999999 26.4737562699999991
 24.4215947600000014  8.7431253600000005 15.7080094900000002
 34.5154851599999972 11.7590499099999999 24.3518296899999989
 26.2015309300000006 34.1302736800000019 12.5096580999999993
  4.8236138300000002 10.4776066199999995 12.1345316099999998
  0.0727968200000000 33.4961889300000024 30.4473543599999985
 28.6846697100000014 13.2438408499999998 24.2331358500000000
 26.3142825699999996  4.1471413699999999 16.0050535499999995
 21.9349914900000016  6.4020361399999999  9.0214585700000001
  3.6541377599999998 25.0932659099999995 27.5201763899999996
  6.6045860999999997 18.2785830599999990 13.1455545300000001
 17.3349158800000005  7.9312779600000001 20.9886431100000017
 26.1246993399999994  2.8217256599999998 34.7431584599999965
 23.2642530299999990 17.3007018600000002 27.8961142799999990
 24.9926558800000009 16.5673955200000016 23.2165235699999997
 20.1116663100000004 21.7756358100000007 23.1110586500000004
 32.5627248099999989 21.7159502599999996 34.9760009199999971
 16.6473985999999989  2.8282812300000000  4.9226283700000000
 29.6149767600000011  3.9144570900000000 25.2803299599999995
 21.5055996500000006 34.6133386500000029 11.3826987800000001
 34.0184441600000014 22.9910755199999990 11.0062557000000005
  7.1395855099999999 15.0135954799999993 18.4992638800000009
 12.1279619899999993 29.6572053500000017 13.6503969200000004
 32.2210285000000027 18.8259739000000010  8.1433443499999996
 15.1885412100000003 18.8120361699999989 18.8918555999999995
 30.4170497500000003  9.3551239099999997 11.5674975799999995
 24.9318680499999985  9.9063825899999998  1.5721279100000001
 32.7537229699999983 11.8219846299999993 32.0956137200000029
 10.9797597299999996 16.8217182100000002 27.6180304700000008
  6.2380962000000002 18.6828105999999998 16.9978050900000000
 12.1100641400000004  8.8479245100000004 27.0671995299999999
 23.4225730200000015 18.1846992900000011 10.2410383500000002
 26.1315099099999983 12.2869936400000004  7.5020472700000003
 16.9084954900000000 16.0836601399999992 13.0759373300000004
  2.2786241399999998  6.8358559500000000 20.2309056900000002
 30.8319061999999988 16.8475790200000013  7.2605735600000001
 18.4598781699999996 15.1723978099999997 27.4900102500000010
 24.6022894600000015  0.6789220500000001  0.6428946400000000
 25.1302446599999989 19.0219813699999989 12.4409590500000000
  5.1987700099999996 15.7275112000000004 12.2806992000000008
  6.7113704500000004 28.0032287999999987  5.2664322099999996
 32.9262003600000028  5.6494039899999997 29.5328300199999987
 23.2741650699999987  8.8924065900000002  4.6776403100000001
  7.1006332499999996 25.3430114700000004 24.9937171300000003
 34.4038867200000027 26.1241465499999990 28.5310818399999988
 21.8925426499999993 27.9643019200000005 16.0223461900000004
 32.5724184800000032  9.6373617399999993 30.1387103900000000
 21.3054527699999987 30.7447796900000014 22.5123289299999989
 14.7123808199999999 30.9845248099999999 26.9084070000000004
 14.5964543199999994  7.6077454199999996  8.3772740199999998
 26.8445371900000005 26.1366164400000009 28.1125242100000001
 22.1943828600000010 25.9927506599999987 25.1603590699999984
  0.1548466600000000 12.5077352400000006  7.5061872500000000
 16.4890270500000007  1.0775916600000000 16.0830453200000001
  2.7427428599999999  2.2792497699999998 17.3509352300000010
 32.1684764999999970 10.5845147300000004 23.9390741100000000
 19.0185625000000016 24.9798733400000010 11.7312896999999996
 12.7860350999999994 29.8918692099999994  2.6457988700000001
 17.9415957599999984 19.3998546999999988 28.3579239100000002
 16.6271976700000010 13.3112259000000002  1.7737656900000001
 26.6799292500000007 24.5709635099999986 34.1837222799999978
  0.8204390900000000 34.1197532699999968 10.6932323700000005
 31.1564571000000008 11.5744741700000002  2.1873149399999998
 12.2021223200000009 16.0697861099999990 24.8952132800000001
 23.8496174900000000 20.5210997999999982  8.1243467799999998
 10.8963110600000004 14.2999151799999993 28.6743712700000017
 15.1579714299999999 30.0257643899999991 13.0220542100000003
  6.6650579900000002 19.6296001199999992  4.6891397599999998
 25.3718829499999998 20.2366723800000017 22.7526848199999989
 29.3737204699999985  9.1199715799999996 14.3623516799999997
 28.0446054400000016  0.6835990300000000  9.2489126299999995
 11.4745296999999997  2.4207245199999998 15.1169638800000001
  5.8118561099999999 29.8656020899999994 16.1743572799999988
 32.4227694599999978 14.4863862099999992 12.6931089400000001
  8.0819683599999994 33.6421977899999973 34.4181926300000001
 21.5635541599999989 28.6547686900000009  0.6974484100000000
 32.0154652100000021 28.9237878200000011  7.1018300999999999