Na Cl 
 1.0000000000000000
    35.0000000000000000    0.0000000000000000    0.0000000000000000
     0.0000000000000000   35.0000000000000000    0.0000000000000000
     0.0000000000000000    0.0000000000000000   35.0000000000000000
 Na  Cl 
 31900 31900
Cartesian
 18.4644465999999987 21.9540891199999990 12.3758791200000005
 31.4004289400000012 17.0091755199999994 28.2129399700000008
 29.8820024800000006 11.8155998600000007 29.7868560600000016
 22.6897269100000010 21.2401441200000001 18.1022043100000012
 23.7478352100000016 24.8664126199999984 29.7968573499999998
 15.7814335799999998  8.5541456700000005 24.5262335799999995
 17.4077356099999996  6.8123285999999998  9.8067294000000000
  6.7010879900000004 30.1858038399999984  7.8051940599999998
  1.8965232800000000 24.8668455799999997  2.0736198300000002
 26.3284043899999993 31.4925895500000017 25.9526426999999984
 16.0659005099999987 29.5897967999999985  0.7147702300000000
  8.1432142299999999 13.0015405800000003 11.8925174400000007
 27.5406214200000008  0.2241850600000000 22.8783014499999986
  5.6124700599999997  3.7843130800000000  7.9499009000000003
 18.9844809199999993 12.1708812700000006 16.0014508599999985
 31.3846030499999991 31.0234420899999996 15.9911524200000006
 33.2987336300000010  1.8160706200000001  2.6989240600000000
  0.8166502400000000  5.4406171900000002 20.4530723200000004
 19.7864970400000004 16.6558309999999992  4.5516193800000000
 24.0669516100000003 33.2556261900000010 12.3093849599999992
 33.8329739799999984 20.7936706999999998  4.2233817000000000
  2.3762257199999999  2.2257521100000002 28.2156462400000017
  5.3663561700000004 32.3481957400000013 21.1257504900000015
 20.4884237800000015 18.9384676700000014  8.8262035500000007
 12.0029966199999993 29.3641418899999991 23.1327298699999986
 11.7909149699999993 34.9078519299999996 26.2674534699999995
 22.0904299199999983 28.8556388300000002 16.7218849700000014
 29.7206900800000007 30.6382578700000003 17.2000336599999990
 15.9657024900000000 25.5617874500000006 26.9616567700000012
 34.5653756399999992 10.2683477300000003 30.1203224899999995
 27.2601313699999999 11.0279187899999993 21.2310881199999990
  5.8980272400000002  8.1437642900000000 22.2464392699999998
 25.9047615600000007 16.3274642999999990 15.6925196299999996
 19.1774945700000004  1.1513201200000001 30.2372164400000010
 31.8967016100000009 27.8638754199999994  8.1542113700000005
 22.8304857599999984  6.9741083200000000 33.8385373200000004
  9.2967129800000006  9.8551299700000001 15.1694477800000005
 12.9088653000000004 29.2991121600000000 15.1780714099999994
 17.8461411199999986 25.0938253300000014  1.9223068400000001
  3.2109940099999998 32.1763488499999966  2.8950394400000001
  6.9279086200000002 27.3601813500000013 12.5678862200000001
  3.4636619199999998  8.7659134200000004 13.7067680099999993
 34.6500247000000030 32.9651219699999984 29.8050129099999985
 12.8519169400000006 17.1680399100000010  3.2467848400000001
  3.7127336600000000 29.9146587100000012  0.6689365400000000
  7.8163453599999997 14.3165054000000005 27.5062680700000008
 17.8475282200000009 13.4068575499999998 34.0548719399999982
  5.2326421300000003 25.0163197799999999 29.2864980599999996
 13.1729590099999996 22.9220687299999994  6.2091992300000003
 23.0114399100000000  3.2704840300000000 17.0251532599999997
 16.7508132799999991 25.9188145699999986  7.5164099000000002
 13.3011548699999995  7.5099428300000000  9.6090864400000005
  9.9158556999999998 20.7868143799999991 28.9892120700000007
 21.6873407900000004  9.1366306000000002 14.3504771400000006
  3.4692935700000000 33.4169666800000016 28.9589700699999995
  3.4099329300000001 15.7428363600000001 24.8506986300000001
 10.6918787099999992  8.4055147199999993 11.4858535100000001
 17.7399068600000014 24.6146261300000013 33.0213184300000009
 29.2989249799999989 12.0320666200000002 27.9437522700000009
 20.6444359800000008 16.0355269100000015  9.1007352499999996
  6.0574246100000000 27.1354366200000001 15.2833454799999995
  2.1874451700000002 14.3910403999999996 20.2160629400000005
 26.3697513999999984 26.4117645000000003 32.5258954199999977
 32.7243749499999979  8.5697969999999994  7.5782524899999997
  2.6896376900000001 19.7405726399999999 14.8043071400000006
  0.9900760300000000 15.2078854200000002 28.9303329900000001
 12.1065371800000001 19.5704558900000016 25.6521580200000017
  5.8198952799999999 24.9800018500000007 13.8911719599999994
 18.9271179099999998 28.0706619800000006 18.6159564400000015
 13.3799405799999995  1.6613015900000001 26.4958837100000011
 11.3174354000000008 22.1368266600000005  3.6457229600000001
 23.6657645199999997 10.5042449599999994  4.8451156400000004
 21.8586418999999985 18.1944846799999986 34.7040880400000020
 31.6077278200000009  1.0814137900000000 10.3215320199999994
 13.9886215000000007 11.7615871100000007 31.9945069699999998
 26.6786299000000007  2.7327323099999998  9.0319548800000007
  5.0657053999999997 19.3106419900000006 33.9599917000000033
 20.5804783799999989 26.1000662400000003  8.8132485900000006
  4.2690601800000003  0.0945265800000000 13.7083102300000004
 25.5699813899999988 24.6772286200000011  0.1814575800000000
  4.7575809199999997 20.6624443400000004  3.7020051800000000
 24.6010590100000002 14.9988369699999993 15.4530166700000002
 18.8510893899999985 10.2593921300000002 19.6035106299999988
 21.2031841099999987 26.9154106900000016 27.3074350199999998
  1.0604440200000000  7.8827105900000003  9.7169561099999999
  2.8813028799999998 21.0574505199999997 27.5708566799999986
 18.3881888199999999  0.2895454900000000  1.3911299600000000
  0.7213163600000000 13.1640827599999994 13.7389875900000007
 16.1644183900000016  5.3799136699999996 15.2090626699999998
 13.7163336400000002 20.4194976900000000 15.4976035999999997
 33.2236763300000035  0.3281417400000000 20.0781416300000011
 18.3263161299999986 10.3951270400000002 25.9001856400000001
  9.4200423700000009 17.6520842400000006 18.5798540299999999
  1.6066973000000000 18.7615020900000005  9.5656154299999994
 14.2984974499999993  4.8466378800000003 12.4427690900000005
  0.6201021100000000 27.0561573300000013 12.8362309600000000
 33.5336608599999977 30.2380670199999990 11.1924650900000007
 21.7607645500000011 18.1698126500000008  5.0412091099999996
 27.6014739499999990  7.9726720000000002 16.6983596100000007
 19.3299324000000006  8.1737950200000000  1.9729842600000000
 14.9463863000000003  8.9145363100000008 26.6118301600000002
  0.0294964500000000  5.7468036900000001 21.5296429200000006
 18.7085450999999985 29.5174455199999990  9.7068122700000004
  7.3938663099999999 18.7111204600000001  2.8016502900000000
 12.3364053400000007 32.9645852800000014 20.7847310199999988
 28.9741925400000007 14.2539440299999995 26.0372364599999990
  2.8332542699999999 18.5044562699999986 29.3965185300000016
  7.2869187799999997  6.2439584100000003 12.2090514700000004
 27.5281172900000008  0.0672306300000000  9.9452101299999995
 24.1466537099999989  7.8088492100000000 28.3286696199999994
 14.9503407799999994  5.3775510799999999 10.5009216700000003
 18.9905878900000005  9.8106226900000006  2.1355221700000002
 16.7210886400000014 16.3368160099999997 32.8667542399999988
 21.5385479300000000 28.3751001999999986 25.3090888999999990
 14.8571171100000008 13.5671872499999999 33.7160312199999979
 15.3367012999999996 23.9387829600000011 14.1252033800000003
 32.2932147100000009  7.0596404799999997  1.3775512800000000
 17.5043496199999993 20.6041390900000003  3.7657538100000001
 11.0242799500000004 30.0731386299999990  4.2409396299999997
 17.4722961400000010  6.8812939200000001 13.9069259600000006
  3.7045773199999998 32.8310270500000030 16.0715582099999992
 19.6788528199999995 27.4792857099999992 19.3549791099999986
  9.1338880600000003  3.2566449400000002 29.4314460400000009
 34.3136063099999973 13.7812496600000003 26.4629959100000001
 18.5722018200000001 12.9960495199999997 24.6043233199999989
 34.8620376699999994 26.2671007299999992 16.1619160700000002
 33.3234314400000002 31.9122956199999983  9.9525074100000008
  6.7920819699999999 19.5215941999999991  9.4336969400000008
  2.1444361100000000 26.5377535100000017 15.0232359800000008
  5.5271387799999996  4.6213991600000002  6.8556245200000001
  2.4813336800000001 18.7752337199999992 30.3530748800000012
 19.1295788599999987  0.8318933900000000 16.6322364699999987
 27.9983328000000000 27.9794379699999993 25.4140179400000008
 28.3994728599999995 14.9402776399999997 11.2463069099999995
 16.6802100099999997 29.2896380600000015 30.9469495600000002
 25.3812969200000005  3.4572925600000000  6.7160129199999998
  1.0290780300000000  5.7144822000000000  3.3024091800000002
 28.5911293300000011 16.1106067599999996 10.9677734699999991
 25.3686647000000001  1.1475778700000001  2.3412259999999998
  8.9853120999999998 26.1404808099999997 23.0610191200000010
 31.5484018500000012 18.9899175299999996 33.5438989000000021
 27.3087780900000006 23.6333365099999995 25.4866509999999984
 24.1432842399999998 21.1782978100000001 28.6512670699999994
 11.8456560199999998  9.9407208100000002 18.6945842700000000
  4.8778079800000000 11.3187178599999996  8.6909997899999993
 14.6334696999999991 34.7253291399999995  3.6068180800000000
 34.7914744400000018 30.3109528499999996 11.1845471100000005
 28.6832556499999995 24.4777401099999992  7.3780151399999996
 32.3005325800000023 25.0510333900000006 17.7182211400000007
 10.1426445699999999 17.4273160999999988 20.9016860499999986
 34.6374258900000029 31.2169492800000015 13.2665252599999999
 20.4900185000000015 10.7410040299999991 29.0546791000000013
  1.9916252299999999 13.2451828700000007 11.7884972700000006
 29.2735775300000007  6.0175477900000001 21.9257529700000013
 26.1301962400000001 25.2082581099999992  0.1940502300000000
  6.4022107500000001 11.9559948499999997  9.4054909799999997
 18.0868495500000002 10.6803917500000001 25.3440899799999997
  8.1202927099999993 12.7596272299999995  6.0548292500000001
 18.5151284300000007 33.7634406000000027  7.1461645499999999
 20.5875143999999999  4.3545100200000002  1.2499558600000000
  8.0080699800000001 16.6321062600000005 25.8099625599999989
 33.0408063200000015  6.8318523700000000 22.9428350799999983
  5.2291886400000003  1.9734217800000000 22.2998471999999985
 13.5318309299999999 34.4824315600000020 16.2271984200000006
 10.5238952300000008 20.1071371300000017 15.6538248200000005
 33.8337970700000028 34.6273262099999997  1.4715699200000001
 22.6755780000000016 28.4394360400000004 21.6014788700000011
  1.0553341199999999 27.0004779799999994 22.0333454199999998
 14.4364884000000000 14.0605457999999999 30.5933123000000009
 31.7997727700000006  8.7809697199999999 21.7581348900000009
  8.9731706199999994 32.0785853699999990  4.7842668799999997
 14.1734311599999998  2.8574436599999999  5.0556556500000003
 25.4045624699999983  9.4814449100000004 34.6446480999999977
 12.6006885499999992 29.7724436899999993 25.4610547599999997
 13.9473319799999995 17.8085383200000003 23.1035115799999993
 10.7191538200000007 11.8182673900000008  4.6200949600000003
 19.9360382099999995  9.9942585299999998  8.5031758100000001
  7.8758422599999998 34.2809052899999998 24.1751727900000013
 32.1290429900000021 12.8255346100000001 28.7602371699999999
 23.3061050999999999 20.7084742900000016  7.3274539000000001
 22.5176628900000004 34.3602318800000006 27.4172116400000014
 26.0759690100000014 23.8110833399999997  2.8777344800000000
 31.0833959100000001  8.6349814800000004 18.1338091199999987
 29.9298562100000005 11.0932977099999999  0.0545452300000000
  6.7416849399999998 12.4987718999999995 31.8592620000000011
 28.6163519099999988 20.0266020699999991 27.1009490000000000
 30.6498376700000001  1.8217233700000000 27.7047075099999986
 28.0190998799999988 27.0117539099999995  1.5480161400000001
 12.5072184800000006 33.8209130899999977 28.0863241099999996
  1.8493123300000001  1.3923939299999999 21.9648608900000006
 18.4170181100000008 29.8233142899999990  5.4432554700000004
 29.7946195799999991 13.1712682599999997 29.5055785099999994
 20.2580527900000007 32.0932682400000004  6.5592378000000000
 26.1096867199999991 30.5047461400000017 13.2683629599999993
 16.3761978100000007 29.7565769200000005  3.7883226300000001
  5.3385012200000004 19.1900871899999999  2.7954021000000000
 12.3231217799999992 19.7078148499999983 24.2441567199999994
  1.5420595200000000 17.3944160299999986 27.9501885100000003
 23.8182422400000000 18.1972831900000003 11.7385715699999995
 30.1723322699999983 26.3884487800000009 25.6586083100000018
  9.2298231000000008  5.6368264200000002 28.1415788999999990
 20.5165056999999997  0.9112268600000000 19.9898707900000012
  4.7583896899999996 34.2555955200000000 18.7939637600000005
 30.1488602300000004 16.8939668999999988 16.9016436200000015
  5.9242714699999999 29.2306181000000009 18.9983561999999999
  0.3726973800000000 33.9247965599999972 24.0557025099999997
 19.1921065300000002  1.7344523999999999 30.9414046200000001
  2.1875136099999999 15.5412427599999994 31.6670973999999994
 18.9059277899999998 21.9284026300000008  0.6629417000000000
 12.0611936600000007 27.4818189699999991 26.9313670400000014
 15.4859214600000001 11.8820245799999995 26.1871254399999991
  2.0171969999999999 23.0299768299999990 34.8205566600000012
 29.0957314999999994 26.9593693899999991 31.1213889399999992
 17.1838318000000001 23.6611150499999994  2.3606088700000001
 19.7533540999999992 19.6223340399999984 22.5682739000000012
  9.9793882499999995  3.5783651900000000 11.5836816599999999
 16.9376055900000004 15.3371209099999994 30.9912025600000014
 34.1414770700000005 25.8050978800000017 21.2800180200000000
 23.2628557600000008 28.8167417300000004 27.9782561299999983
  5.5507710200000000 16.8085433799999997 16.1885998700000009
 26.7979865100000012 13.7593303000000002  8.0643292300000002
 17.1814433599999994 18.5185322899999996 20.9722432900000015
 30.4930440500000017 26.5914295400000000  7.1563374599999996
 16.5636294600000014 29.9203317400000017 26.0154801000000013
 22.1740907599999986 34.9433705000000003 28.2279558399999999
  2.2537665800000002  9.0549123700000003  5.9121666399999997
  0.7847753100000000 29.7185976499999995 30.4706632599999985
  0.4374570400000000  2.3405521700000000 32.6602427300000002
 15.6995261300000006 31.9355900199999994 16.4615033400000002
 28.4866926199999995 10.8429146999999997 26.8673310799999996
 24.2334393699999993 31.4155491799999993 26.1351420300000008
  3.3320868799999999  2.3842298600000000 31.7512175799999987
 32.7139031500000002  7.5702094400000002  7.5100442699999999
 11.3139827200000003 34.1076248099999972 16.8502013400000017
 16.3339502799999998 19.7023386599999988  2.2057803100000002
  7.5496733000000003 12.3592161600000008 31.3460141300000004
 12.4594218199999993  0.5024933300000000 10.4053276399999994
 22.3416957499999995 16.8804360100000004 34.4880928199999985
  6.3759696400000001 25.9217342500000001 21.5875103599999996
 11.2866788800000002 30.2119460199999992 27.1767425100000004
  9.5114128800000000 13.3163159100000001 17.3215384199999995
 28.0961636400000003 27.2223339799999984  5.7672392500000003
 14.9900926600000002  8.4873415899999998 21.7501342199999996
 14.5057767999999996 23.5907164800000011  9.1719042999999996
 12.1955615000000002 10.8021130299999992  6.1136171800000003
 26.5638811100000005 34.1498973400000025 27.3246373700000014
 10.1803380099999998 20.9409152300000017 28.9622343099999995
 23.2720379400000006  8.1416300800000005 21.3767801999999989
  4.5448995600000002 16.1268864699999988  4.5808907200000002
 26.0303318700000013 26.7877249400000004 16.2930745299999984
 32.7036450599999995 10.1625731800000008  2.3673932899999999
 28.7789757799999997 23.2459739100000000 25.0835420499999984
  4.0911857300000003 20.5586266100000010  8.8373579299999996
 24.4747501700000001 27.1260329499999990 32.2358445899999992
 22.8399907999999989 26.7254098000000013 18.9624704599999987
 27.2409854500000002  4.2424421800000003  7.7257983599999998
 32.4930512399999998  5.7121591199999999 34.2582573500000009
 28.5313296399999992 26.0572667899999999 24.4828844200000013
 23.8384990600000002  8.6536202200000005 16.3950782500000010
 32.0801230200000020 30.6275251500000003 11.8152139999999992
 23.3017308300000003 17.1900267800000002 22.7800402599999998
 34.1366392400000009 14.4957345499999999 29.8106414999999991
  2.4517466200000002 11.5054185699999998 31.5698593000000010
 29.6253346099999995  2.9987755699999998  0.4210237900000000
  6.1468070399999997 24.3860021700000011  5.5384650700000000
 19.9824917100000015 20.7381422800000017 15.9572963699999999
 24.2800130500000009  9.1793405700000008 32.1770044499999983
 13.9138629900000002 15.2952132699999996 26.6493529600000016
  0.6751225600000000  6.7848868900000001  3.5939366000000001
 28.2923825499999992  0.0735507700000000 11.1678633999999999
 28.2801369600000001  4.2618356899999998 18.6724381000000008
 17.6672298999999988 28.1328663799999994 14.0852542500000002
 25.8681350399999985 30.7456815500000005  2.6698539399999999
  2.2351223999999998 10.7021529799999993  6.0851564400000004
  3.2243314000000001 11.3378866899999995 15.8616120299999999
 26.1133139900000018 21.4682103499999997  1.2114152100000000
 25.2554094099999986 22.6659439700000007  6.5203085400000003
  1.8256079500000000 22.9928668499999986  6.1131242900000000
 18.2799040400000017  0.3472814500000000 26.7592536000000010
 27.7752009999999991 22.8031315700000015  2.2322816200000002
 32.9571133900000035  0.2047664700000000 11.5100943299999994
  5.1553330700000002 20.6829257800000015 32.9335479499999977
 24.1404323100000013  8.2458949399999995 23.7562289500000006
 25.9400055899999984 13.6740089400000002  9.0682343700000008
 19.8151212500000007  7.7428276399999998  3.7041576900000002
 25.7783335200000003 26.4514619400000015 34.7207833699999995
 32.2061535599999971 13.8228213199999992 25.1579244300000013
 29.2359663300000001  3.8861637400000002  4.7539686799999998
 29.9515370599999997 25.4833763100000006  4.1055946499999996
 17.7292270899999984 20.1197820500000013 18.1769254700000005
 19.5863777100000007 13.2502017900000002 26.1414182000000004
  3.8156960999999998 10.4043787499999993  6.3936291900000004
  7.7257141000000003 31.0768697200000013  3.9493946100000001
 17.4752061599999990 20.7899580899999989 11.8256570500000002
 23.8181183599999997 16.1151950399999997 18.0831029000000001
 17.7104421099999989 19.4006025199999996  5.9266033599999997
 33.4226883099999981 20.1223518000000006 26.3666268300000013
  8.8971789500000007 14.8866552399999996 20.0146857800000006
  1.8238466000000000 28.3897425199999986 26.4025395799999991
 17.4827811599999983  8.1030329800000001  2.6752506299999999
 22.9373027900000004 17.2479695200000016 16.6236979500000004
 24.4914824899999992 28.3462637300000004 30.6545200899999983
 10.5192316100000003 11.7257359500000007 24.4440594900000008
  1.3078009200000000  0.2101075900000000 31.2781975400000007
 27.6661347199999987  9.7262633100000002 19.3074539799999982
 15.3790242100000007  0.2599147500000000 28.3872013800000005
 18.6935729500000001 22.8806166200000014  9.5234953499999992
  6.3863364499999999 25.1567103400000001  8.8306259499999999
 16.3303385299999988 28.9996490599999994 22.1018289900000013
 10.4397972400000008  6.6722447999999996  0.4183787900000000
 31.6924035400000008 24.2263259300000016 16.8599715100000012
  5.5411559600000002 30.2082621700000011  0.2622179100000000
 32.0963454700000028 23.2783511700000005  9.2481400300000001
 33.4894874100000024 22.8149046599999998 25.1026972099999988
 11.0319766399999999 19.4313220700000002 32.2299528899999999
 28.8182233600000011 17.8800413099999993 34.8543291800000006
  1.7105970900000000 15.0053512599999994 19.9386398100000015
 18.7192052900000014 33.6833081600000028 25.3602806399999992
  0.2366951100000000 23.1346899000000015  9.7331597399999996
 30.2157479199999983 21.0752908599999991 12.4134635299999996
 33.0814837100000005 25.4966300600000011 16.8613600499999983
 28.8782934000000004 12.4772147499999999 19.5482583900000009
  2.5787227300000000 10.5929010199999993 24.8874843100000014
 33.9487927400000018  7.3595456300000004  1.8834051700000001
 14.3906667499999994 13.9361059800000007  4.1331674400000002
 26.1451819800000003 32.0735387300000028 24.9654030499999990
 13.5290954800000005 23.5077558300000007 14.8521753800000003
  0.5115652800000000 22.8776752600000002 30.0880773899999987
 10.3167743800000000  4.0269589699999999 26.0993288399999983
 31.4198798100000012 28.9200239600000018 13.8426178600000007
  7.8784041699999996  7.3388497199999998  4.0473106400000001
 18.1498972899999984 20.3238312599999986 17.6319458299999994
 30.1135670399999995 18.7212707199999997 33.3970124800000008
  8.5888338900000001 12.5311847299999997 16.6218337200000015
 28.1593566700000011  4.3075224399999996 16.5296178900000008
 18.2878386199999987 28.7036438800000013 17.1427176800000005
 32.6560247700000019 14.8082733700000002 32.6505892200000005
 28.4530607300000007  5.5917300200000000  5.2064352700000001
  4.5575712399999997 19.0997685600000011 24.8101559499999986
 29.2910739999999983 20.0806548700000000 25.5663267099999985
 33.2530260500000026  3.6088173399999999 33.3930516900000001
 12.0198109599999992 31.9627528199999986 17.9866531499999986
  6.6795007699999998 17.3694124400000014 27.7148955299999997
 24.2491415000000003 15.3211119300000007  6.9282190000000003
 32.5767695099999983 12.7651951599999993 29.6351177999999997
 27.4248456699999998 14.3811927199999996 29.7060798199999994
 30.0836135800000015  5.2933943200000000 31.0782632800000016
 27.3709003099999997 17.7215149300000014 30.5013718400000009
 26.5564564499999989 14.3634875100000006 12.1345679400000002
  0.6833710200000001  5.4167309200000000  3.9965654000000002
  5.2747117200000000 32.0798675599999967 26.3340572399999999
 21.5000165400000007 10.7780278500000009 21.3141548900000011
  2.0012683199999999  0.3166115100000000  1.2897254499999999
 11.4156147099999998 27.2364687100000005 33.3296343900000025
 31.1651691399999997 17.9977818499999991 18.7195517900000006
  4.5069095299999997  7.6284379700000002  6.1569404299999997
 19.6978541400000005 31.8345181299999993 32.7462946500000029
 26.9742160599999998  0.6492852400000000 27.5370667299999994
 10.4804996300000006 25.7572202499999996 21.6007491700000003
 23.7912569599999983 19.6557018700000015 23.3813593600000011
 25.5067617200000001 12.1441761899999996 22.1691524499999986
 21.9452723499999998  4.1923427300000000  5.7042608100000001
  6.5113734200000000 26.6531172100000013 28.9409089500000007
 14.8567661599999994  7.6688049200000004 19.6043081800000003
 34.6076023999999975 19.9736081900000002 11.4328915099999993
  2.6076426100000001  6.6494073499999997  1.5893598900000001
  7.3716088299999996 29.6296488099999991  5.5075431899999998
 25.2783890800000002 23.8852143099999985 23.7969800499999984
 10.8437366599999994  5.6820859099999996 18.8178692199999986
 11.9280483600000000 29.7087573700000007  5.0850411600000003
 29.2867728199999995 17.7907516600000015  4.1632068499999999
  6.0174539600000001 20.3487787000000004 16.9235743399999983
 24.5138624199999988 19.4857183099999993  1.4677083799999999
 27.7747456700000015 15.1505468400000005 10.2407241700000000
 20.8510977000000004 24.3990223800000017 14.3691888900000002
  2.9577374000000001 10.6924143300000001 17.4077176899999984
  6.5112873000000002 25.2057084799999984 27.3423697600000004
 28.2084794099999989 24.9134069999999994 14.6314211699999994
  0.2956828900000000 34.5422854899999976  7.1921538900000002
 23.5303471900000005  9.5452320600000000 21.7151489099999999
 21.5077585900000017  0.8985387900000000 16.7414222399999986
  8.0836039399999997 26.1314589099999992 11.4298888099999996
 22.1411787699999998  6.7916353000000003 12.0144625400000002
 12.0719321300000004 32.9633334199999979 34.7447112199999992
 14.3614378499999997 12.6860210099999993 28.9550800600000002
  8.0305572600000001  9.5758911500000004 12.0025183200000001
 21.3253258400000014 14.7513275600000000 20.5622489500000007
 34.7180974199999994 22.0633817500000013 29.2569889500000002
  7.2133172099999996 29.2222772599999985 18.8139170399999998
 15.5036567299999994 29.9586503399999984  5.0362147500000001
 13.6613548599999994  6.3911890400000004  1.7142478299999999
  6.3632644899999997 22.3862144699999988 30.1066555200000003
  7.5593241500000001 34.5610321200000001  7.2667927700000003
 17.9861267699999985 32.8326120899999978  7.7113843500000003
  0.2367128700000000 23.4332658900000013 22.8997774000000014
 16.5587896599999986 18.5778237399999995  2.4835707999999999
 21.3744421200000012  0.2487386400000000 15.5503085700000003
  9.0361760699999998  6.0111948899999996 20.1525146299999989
  8.3133171200000007  1.9208552100000000 13.8135009300000000
  8.5101696899999997 20.4219213699999997 21.2324077200000012
 28.0764707099999988 11.2431822799999992 34.1645287699999969
 28.2351075499999986 17.4525152800000001 24.4243280399999989
 19.6813693500000007 34.7746287300000034 27.1850402899999999
  8.9721476800000008 14.8860869600000001 10.4635412599999995
 20.7379524400000008 12.7666421499999991 18.9545428399999984
 34.0015880999999993 19.6912218999999986 25.3665147900000001
  0.0141310300000000 27.5002146299999986 21.1073496799999987
 26.2261554200000013 27.9941194399999986 27.1654314899999996
 29.4069861099999983  8.2155603100000008  3.9221171199999998
 14.0224607399999996 20.4976192300000015 33.4863292900000005
  4.7363118200000001 13.1927544900000004  5.6247434800000002
  0.0636145900000000 19.1704788099999988 23.2373625299999986
 20.3519823399999993  0.7672339100000000 14.9002850700000007
  4.0912226499999997 21.1790620300000008  6.4955129800000000
  5.0866671800000001 21.6152411800000017 22.3585904400000004
 20.8294869600000006 11.1873602000000005  5.9629001900000000
 13.4635581500000008  7.0217678899999996 29.8529913700000016
 14.2259469299999992 10.4899721699999997  9.9623194200000000
 31.7024478000000016 18.0400934299999989 29.8503071499999990
  4.1122109399999998 23.9293338200000001 30.3134575300000009
 18.2807481600000017 14.5342975299999999 12.9385764800000000
  3.6548503800000001  2.0702718400000002  5.0588834000000000
  9.6533540500000008 18.9214708000000016  3.1596558600000000
  9.3361212099999999  7.1892556299999999  9.8194553700000000
 10.5864073399999992 20.7480997500000015  8.3124242899999992
 21.9150835099999988 21.8084714499999990 14.9797388700000003
  9.4712299200000007  2.9612640500000000 34.9649523400000035
  5.9539526800000004  3.0826120600000002  9.4608228000000008
  3.0488765700000000  2.4685840200000002 14.4916304399999998
 30.8327403800000006 30.8675021200000010 20.1081195900000012
 32.1658986899999988  2.2592215200000001 30.7360932899999995
 16.5199020099999991 29.9930701900000010 23.5307510399999984
 16.3327681899999995 34.8349828899999991 26.5575120600000005
 32.1052013799999969 32.1195765100000017 28.7223347699999998
 16.2805401699999983 32.0385636099999971 32.1385866600000014
 33.2260334200000003  4.9436967799999998 33.7118536500000019
 15.1242295599999999 22.9261478200000006  4.7663547399999997
 28.1241938299999994  8.3256618099999997 34.3980216699999986
 32.5502430900000022 21.9356398500000012 17.2989639900000007
 33.6877128799999994 29.3904161799999990  9.7246975500000001
 27.9916786600000016 21.1432822199999997  0.1443000600000000
 10.2511153799999999 20.4961364000000010  8.5645477299999992
 24.3537049500000009 22.7191025700000004 24.9569050200000007
 10.7026697100000003 14.7698827500000007 17.4193891699999988
 27.6737934599999988 33.4467541799999992  4.5974893400000001
 25.0032989800000003 20.4459130199999990  4.4601002599999999
 25.9050907099999996 21.8596116800000004 34.4934465099999983
 26.3555413600000001 32.5835715300000004 22.0866536099999990
  0.3871494800000000 31.8212927900000011 20.4679769100000009
 25.2879154200000009  8.9945330499999994  6.1170318000000004
 13.9534729399999993 16.0196829600000008 22.8114952200000012
  2.8002128700000002 23.1777730499999990 33.8317002499999973
 34.3860463299999992  6.2807179299999998  0.0263192100000000
 22.3468992600000007 34.3358079899999993  1.9248092200000000
 10.2685719300000002 33.8884062400000019  7.4436107800000002
 14.7663428099999994 27.9236039799999993 32.0121516999999969
  8.2336138099999996 27.3473618899999984  7.1113449800000001
 30.3750183999999983  2.9341993099999999  0.0877228400000000
  4.3578159599999999 21.8127557000000003 16.9850361599999999
  7.5026839599999997 27.6092945199999988 34.4129435899999976
  3.3428415399999998  8.1377497699999992 26.1603886699999997
  7.6523924299999999 23.7595408699999986 11.6033351499999995
 32.2538638199999994 10.6891756600000001 32.9753977599999999
 27.5101294600000017 12.7458952399999994 20.2613434800000007
 17.3999501400000014 15.9620869899999995 34.7960955900000002
  2.9785108999999999  9.8326559099999997 22.4478143900000013
 15.4164259900000005 33.8716631500000034  6.0425908699999997
 22.8247612000000011 15.7614204699999991 22.1937781200000011
 15.8288405599999997  0.3233422400000000  9.4130450200000002
  5.0476595599999996 31.0141409999999986 34.6677224199999969
 15.4106293099999991  6.4468663599999996 27.4828930000000007
  9.9826138199999992 22.7904510900000012 34.1114811500000030
 11.6636522500000002 31.0034348599999987 29.7296710500000003
  6.5812938000000001 11.8049231900000002 25.3440573299999983
  7.5716251000000003 31.3029894499999983 24.3437167599999995
 29.8476299300000001 29.1162618199999983 22.0124070100000004
 12.5246946799999996 12.5435339700000004 14.1754246800000008
  1.3626000500000000 11.2189638400000007 12.1251987400000001
 18.2152171100000011 33.1540438500000008 20.0149102799999987
  5.5971348799999996 26.0458510399999987  7.6185028600000004
 14.1776347600000001  3.5073703200000002  8.3729590599999995
 24.3228952000000014 29.8995896600000002 27.4033619299999991
  3.3039379599999998 19.2853735300000011 29.2729033600000008
 29.6867260399999999 19.8045240000000007  4.6348553299999997
 23.0135126399999983  3.1069058300000001 32.7662245900000002
 11.9367549299999993  1.0400269499999999 14.7328894500000001
 25.6729710199999985  5.6238520999999997 20.0822220300000005