Na Cl 
 1.0000000000000000
    35.0000000000000000    0.0000000000000000    0.0000000000000000
     0.0000000000000000   35.0000000000000000    0.0000000000000000
     0.0000000000000000    0.0000000000000000   35.0000000000000000
 Na  Cl 
 4900 4900
Cartesian
 28.1255398800000016 30.9486821899999995 19.5014951299999986
 21.6286598900000016  2.8867297500000002  7.2669361600000002
 20.3961006599999983  7.2637150100000003  1.2582478600000000
  7.3718360599999997 33.4486822200000020  2.0020234100000001
 13.0074605900000009  6.3900889999999997 18.2258200700000010
  1.3578891799999999  2.0434600900000000  9.4337594599999992
  3.1952044499999999 11.8011896099999998 32.5937938900000006
 18.8938508200000008 28.9506941100000006  4.3159809300000003
 18.6915066400000001 23.1521204599999990 22.6885225099999985
  0.9977878800000000  4.8208171799999997 33.4743503099999984
 13.4057018499999998 14.6309973899999992 28.1731390200000007
 25.9474300299999996 33.4565838500000012 29.8047876199999990
  9.0654803600000005  8.5284473100000007 12.6138802699999992
  6.4856584399999999 14.4613625199999998 12.1197950700000003
 32.3957977099999965 16.1721609199999996 30.5086422900000009
  8.7510075700000005  8.1842575699999998  2.8169835999999999
 25.0433662400000010 28.8563860400000003 29.2801553500000011
 11.5709224899999992 12.4943052399999992 26.7882193400000013
 24.6025264300000011  4.6617613699999998 20.2232807000000001
  7.6787097099999997 11.0741172199999998 27.6880780999999985
 28.5286923700000017 16.7327027500000014  1.5351134799999999
  5.6523007099999996  8.2179730899999992  9.4736668000000002
  8.9179457400000004 13.9140405699999992 18.2798774500000007
 34.9002392299999968  3.3207948599999999 22.5991972200000006
  4.7075961000000000 20.5676806300000017 21.0083903300000010
  8.0162882999999994 14.7574668100000004 18.7446316800000012
  6.0247096400000002  2.2948817300000002  0.0772597900000000
  3.5053250000000000  8.9972756199999999 17.2114118500000011
 32.1989656299999965 33.0154158799999990  0.0947248700000000
 17.0408565199999984  0.6755506300000000 13.9794724899999991
 32.9941319100000001 27.3749433899999985 15.6735746999999996
 15.7700354699999998 26.9861487099999984 26.2014062599999988
 32.0350372300000004  7.8707053499999997 17.9447823799999995
  2.9575387399999999  7.3535678100000004  6.4142289999999997
  3.9467590700000001  8.1796779500000003 30.8473811600000012
 31.9352040499999994  9.9744606600000001 25.7602344000000016
  2.2595068999999999  0.5324836900000000 24.4533655500000009
 17.7147774200000008 22.2641003300000015  7.7342162400000003
 33.9723240599999983 17.8505591099999990 29.3469341300000011
 13.9218934700000005 10.2636121100000004 20.5287298299999996
 31.3621854599999992  4.2509516300000003 10.7439701799999998
  8.9067338199999995  0.4753391000000000  9.0242612900000001
 15.7595673200000004 26.0479198799999985  7.3894570799999997
 14.6051082799999996 13.0547918000000003 31.8858178999999993
 19.9414337999999987 30.6778121599999984 16.9890565699999989
  5.0737169499999997 13.9607424000000009 33.1975247900000028
 15.7990876000000000 25.2652656499999999 13.3197366200000005
  4.8133034900000000 12.1917734699999993 17.1366730899999986
  1.0645863799999999  7.5032348999999998  1.8689850400000001
 17.0316072900000002 20.2237433700000011 15.4548336800000001
 14.3896604999999997 32.0241046499999982 34.1267688699999994
 23.6044507299999999 30.0034653499999990 23.2420791000000015
 29.6233591099999991  4.7965779399999997 11.0854946299999995
  8.9081929500000001 24.9988367199999999 15.4488295600000001
 18.4783727300000002 11.0105447499999993  9.2256900500000008
  6.1727121000000000  4.7722460000000000 22.1385653500000004
 32.8678205000000005  4.4591334700000003  9.6562567799999997
 32.7076914200000033  8.1696914599999992  3.0043965099999999
 24.8921096900000016  6.6875707499999999 13.0015265299999996
 11.6563958799999998 14.0455531400000009 23.6116144400000003
 10.4038213200000005 32.0249173400000018 12.7856615599999994
 23.6138297100000010 12.6359730100000007 27.7983171800000015
 26.3167803300000003 11.1269251800000006  5.2314968000000004
  5.7666602100000004  5.2581590100000000 33.8785413299999973
 16.6440911400000005 17.2397326299999989 18.1863391999999990
  2.8028890500000001 33.1561911100000017 21.1039816100000017
  4.6188874699999998 34.6416366099999991 31.9865802499999994
 33.4542983099999987 26.3917542000000012 11.2129165400000002
 15.4882891399999991 16.6756295299999984 22.3055177100000002
  3.8361903700000002  4.8514988600000004 24.1413768900000001
 24.1213719299999987  2.8979658399999999 21.1118653300000005
 32.1206103800000022 11.0986354600000006 19.7662203299999994
 25.8650340800000009 13.6277363999999999  1.3657168500000001
 28.6031620699999998  8.3448884499999991  7.5402385199999999
 28.7887964099999998 13.3012449700000008  9.0241887500000004
 14.5403363799999994  9.4335939999999994  0.4143389200000000
 33.7943065799999971  0.9107115500000000 11.3289757800000004
  6.0958968200000001  8.7378948300000001 32.7984733099999985
 28.9409228100000000 15.0896006400000005  0.9180021800000000
 28.8626434799999991 29.4490271300000011 14.7989212000000006
 15.4686847699999994  2.1849749900000002  7.8747341799999999
 15.6574335300000005 24.4852630699999985 28.8164541300000003
 23.1446122099999982  1.4974359200000000  2.4055025099999998
  4.2806226299999999 19.4244883799999997 22.3762622100000002
  2.8389090100000001  8.5436583200000005 23.2653235400000007
  0.2927812800000000 20.7749655400000002  4.8458766500000001
 34.6489249999999984 14.4824465900000003 16.4799118900000003
 22.8790743700000014 18.6029908100000014  5.4665846299999998
  1.8878931100000000 19.8194527399999991 10.5422274799999993
 13.2172856799999998 32.9203805000000003 12.8350887999999994
 14.3374162599999995 28.9551320499999996  8.9043713899999997
 30.7699373300000012 25.3367413900000003 24.6125550900000007
 33.2133846300000002  2.3554024800000000  2.2494977700000001
  7.3090200899999997 27.7007006099999984 30.6751490000000011
  7.2292290000000001 16.6518584300000008  7.7845501700000002
  4.9347907299999996 24.0277674700000006  4.6879407300000002
  5.2199212700000004 21.2167382999999994  9.7206712700000004
 30.3220334200000003 22.4157037300000006  0.7326592000000000
 28.8032070800000000 10.5014291300000000 27.5194520500000017
 29.4306295899999988 20.5914374299999992  0.2888535400000000
 24.7614583000000010 15.8296471400000005 13.8795138300000005
 32.9889546200000012 10.3603134000000008  0.7873975800000000
  3.7911525899999998 17.9016559899999983 13.1322807099999999
  4.2419513699999998 34.4766095000000021 23.3759036400000006
  3.8124324999999999 25.5529567399999991 18.5439162800000013
 27.6008973200000014 33.2812789500000008 23.4553019300000010
  8.2594582899999995  6.7154342199999997 26.3028967700000003
 22.7859562300000000 28.5662779200000010 18.4329321200000003
 17.2901489700000006 25.5337601599999999 10.9070872300000001
 20.4150133499999988 10.1293545799999993  4.0623461199999999
 25.8511906799999984 25.9617135300000008 28.5193474400000007
 34.6724200800000020 24.3642554900000015 25.0420117799999993
  6.0920214300000000 13.6042280200000008 26.2603868499999997
  8.3218327999999993  5.0439394999999996  3.4912335699999999
 17.1626936999999984 18.3929437399999998 10.2054629000000006
 23.2150165299999998 29.7828352900000013 25.1126676099999990
  3.6045993599999999 32.5015250200000025  8.1309875700000003
 17.5081239300000000 14.0389359299999992 17.3961680299999983
 22.3960810799999983 20.9346631499999987 28.8834831700000016
 29.7016696899999992 25.9625356300000014  7.3362936500000000
 31.0874306099999984  6.4462448800000001 17.0376640600000009
 17.0198021900000001 31.8153431600000012 25.4724134699999993
 29.8532572199999997 18.6941776600000011 33.0439788699999966
 25.1528670100000014 14.2357655300000001  0.5112767900000000
 18.0289655800000013 17.8245001199999997 11.3734882800000001
 19.2174777699999986  8.1488987000000002  3.5403780399999998
  3.1337175099999999 28.3902528499999995 34.9796141799999987
  7.3755630200000004 26.0877329600000003 11.5278281699999994
 23.2081275299999987 18.9994501999999983 18.7594997300000017
 10.9119928200000000 32.8633481900000035 34.2930395699999977
 18.1159943000000005 10.5162126600000008 30.9861709500000018
 19.5751701800000006 34.8851855799999981 30.3140774200000003
 28.6991326499999992 11.3224958299999994  2.1874292799999999
 14.1239655499999994 11.4890425500000006  1.3381314900000001
 19.9760126100000015 16.8439187299999986 15.7421415000000007
 13.1722686899999992 11.3197893599999997 26.6997885100000012
  8.3454986600000005 17.7959128000000000 20.9063792100000008
  8.5154493400000000  4.1570612400000000  7.7282412899999997
  3.5513583299999998 12.6794263899999997 23.1192908300000006
 30.9209198399999998  7.8998166400000001 17.2182395300000017
  6.9518526800000000  9.7880189499999997  7.2345579899999999
  1.2161629899999999  0.0513485800000000 23.0155382999999993
  2.1522382100000002 17.6676704200000003  0.5367291000000000
 25.8059045000000005 34.8370113799999999 25.6502331099999985
  8.4679544100000008 10.9097765700000000 30.6147611300000015
  7.2902846300000004 27.8136989300000010  4.8378401499999999
  4.5794485900000002  1.7925358499999999 27.1501128399999985
 16.9465558399999985 25.7640860600000003 31.9943419300000009
 23.9048863699999998  4.4252364899999996 34.9497157400000020
 29.8724504099999990 26.2740307500000014 27.6347651600000006
  7.4980457999999999 19.6557609400000004 24.3740560399999993
 14.7598097999999993 23.1232433999999998 27.3518856200000009
 13.1416657099999998 21.9755365800000000 22.8433814499999990
 13.7120610000000003 18.6092335200000001  5.3878300899999996
  8.2602749699999993 20.4414380199999997 34.2488090700000001
  9.7341017099999991 11.0473972400000005 33.6054141400000006
 11.1955189700000002  3.0873463700000001 19.0305016400000007
 15.6410156899999997 28.5506490399999997  0.7583790000000000
  6.0757690400000000 20.4502055899999995  6.6053721599999999
 31.4898856900000013 15.5088296000000003 11.8990472100000009
 32.2864713399999985 33.7237567199999972  5.1791804700000004
  1.4861265200000000 22.3284680299999998  4.5621255200000004
 25.6436947699999997  3.5780210299999999  5.7995251899999998
 32.6199005000000000  2.6676994500000002  1.0247032199999999
  2.1869952300000000  6.8288502400000004  7.4859585400000004
 26.5052070600000000 28.0150441199999989 28.8465820999999991
  4.5053813700000003 16.9446028400000017 27.9399020600000014
 25.9339800899999986 17.4033342900000001  2.8394429500000000
 17.5176472300000015 34.0970310800000007 13.8013963799999999
 15.0689835900000002  4.4071467599999998 10.9155403100000008
 22.4859596900000014 26.5245381900000012  2.9133808399999999
  0.1917279200000000  2.3712072200000001 22.8796792499999988
 28.7690922899999997 32.1341821400000001 29.1991849600000002
 15.7015653700000009 31.2091002099999990 21.3471624800000015
 31.7598353899999992  2.5533884800000002  4.8002597600000003
  2.9657788699999998  5.8454372299999999 34.2635168600000029
 11.9279007799999999 27.2283852899999985  2.4715338899999999
 29.0700361600000008 15.0976918199999997 31.9064899900000007
 17.3773269299999988 20.7337849200000015 12.7231808399999995
 23.5004426500000001 31.9396722699999991 15.0717999099999993
 16.7410280399999998  1.4582301799999999  8.4745952500000001
 17.5224112100000013  9.1652496400000008  5.3506402099999999
 13.2100724300000003 16.6872988400000004  8.4315921199999995
 29.7688322599999999 34.7638436299999967 20.9198323500000001
 24.6223877900000012 23.4716325700000006  2.7285846800000000
  9.3226795500000001 26.2751589199999991 11.5959838899999994
 13.7012028299999997 11.1160291200000003 32.1014215900000011
  3.5927415699999998  8.2075319899999997  8.9901500300000006
  2.4514876700000001  7.1533311499999996  1.0366286499999999
 27.6177683999999992  1.8334155800000000 14.2156436300000006
 12.3224737199999996  8.8158176200000007 12.4467089400000006
 31.8371340899999993  6.7125674999999996 13.1220458000000004
  7.2238334999999996 30.9696744099999997 22.3177823400000008
 34.9678474299999991 19.6117034500000003 18.8998552800000006
 24.8677342699999997 17.0098151100000017  3.9624972800000000
 27.6917060500000005 19.5036613500000016 23.0363035700000012
  1.1541487100000001  7.7773616800000003 24.1177979899999997
 12.8307774299999995 11.8763112300000007  0.1628965500000000
  7.8023762899999998 24.5382628599999997  9.5839456399999996
  7.3744056300000000  6.6353704300000000 10.6707762200000005
  3.7358650000000000 33.6830557899999974 21.1185841600000010
  5.0439662199999997  3.9401932500000001  2.8279105300000000
 33.6922514600000014  0.6702806900000000 30.4075906799999984
 25.3765590000000003 28.8270767600000006 26.6790825200000015
 10.3398458400000006  6.7889632200000003  2.1047991399999999
 25.3591196100000005 15.7232477700000004 10.6252014799999994
  7.7613574700000001  0.1350738400000000 30.1860872799999989
 12.5689876300000005 21.9750992099999998 15.4923858600000006
 15.5291696500000000  3.7543086200000002 28.6649196699999997
 31.3048632200000014 20.8360875000000014 17.1225834600000013
  9.2601359700000003 25.1052511400000000 18.9559727600000016
 23.0342158499999989  1.0657178300000001 26.5195121399999998
 23.4404816599999997  4.1753171199999999 34.5547870099999983
  7.3052806500000003 34.8518249099999977 29.6212441200000001
  4.2498740100000001 27.6324603599999996  3.7612354899999998
  5.0849016300000001 26.9417186599999994 14.4656013899999998
 13.3624909400000007 23.3851750799999998 19.6375966999999996
 34.0877789199999981 33.3002829899999995 27.8562794800000013
 20.4891455299999983 31.0688704400000013  9.5055581700000005
 19.9160795899999989 24.5496153200000009 25.3846844900000015
 25.3921723300000011 11.2403074099999998 20.8467163500000012
 20.7616923200000016 26.7627733600000006 16.9318695999999989
 23.9324130900000007 12.0668112700000005 16.8970245900000009
 33.2923234000000008 34.0794453500000003 33.2380134499999969
 31.2921117399999993 16.5220787700000002 31.5779420100000010
 25.4713825000000007 12.5257148199999992 29.6889176299999988
 21.6386656799999990 31.0540391500000013  5.2359711799999999
 10.9675423300000006 21.4838897899999992 19.7356772400000011
  2.5274480499999998 23.8193292599999999  1.4668465300000000
 13.2897014500000008 25.0122514699999989 30.9104056000000007
  6.1869337800000004 33.7960199400000008 29.7071328600000015
 12.7820476299999992 32.8744344500000025 10.6197952900000008
 21.8994800199999986  4.5606902399999996  1.5209463900000000
 12.5458946400000002 18.8512427699999989 12.8372807699999996
 16.1778581700000004 21.2622353299999993  4.3891142900000002
 22.8439300299999992 22.9320327000000006 33.6736223999999993
  2.5717217799999998 32.9279393699999972 34.8769799900000024
 32.4026506800000007 26.3499024300000002  7.8100747200000002
 13.9257560500000004  5.1819755000000001 13.4622644600000001
 20.2788618700000001 31.8314835500000015 16.7440375699999997
 17.0394677200000011 12.3340304300000003 28.0493585500000009
 10.5691109900000004 10.0484922599999997 10.0093718999999997
 17.5135468500000009  0.1818583000000000 11.4925238499999995
 24.8483419999999988  6.0839935000000001 18.6788350799999989
 20.1811558300000016 34.6860153699999998  7.8603496899999996
 18.8971695799999999 14.7290712999999993 31.5013215100000004
 32.7106842000000029 23.4693362400000005 34.1342142900000027
  8.7395644499999996 25.8596855000000012 28.7341764799999986
  5.3041712700000003  2.2065097499999999 19.8093676899999984
 16.0428308999999985 26.8590197599999989 24.5450746200000012
 19.0692099900000009  1.2123431400000000  5.8512110899999996
 26.3048215600000006 20.1359796399999986 10.4097451099999994
 26.5860390100000004 21.5576999299999983  0.2627500600000000
  6.0402028699999999 17.6895743600000017 18.6762646799999992
 11.9804975500000008  1.2223107300000000 33.3764451500000021
 12.9137173099999991  5.8467884300000001 21.9730968799999999
 16.8393110999999998  8.3016655600000000 16.0930828599999991
 31.4436541100000007  8.4946803899999992  5.0932441600000002
 27.1546458100000017 23.1321908699999987  2.7320099400000002
 31.8911430399999993  4.4410925499999996 21.4424804999999985
 23.7698428100000001  9.7480980000000006  1.2830910600000001
  4.9114535400000001 16.7997238700000011  7.9590444199999997
 32.6596241000000020  5.3022337000000004  4.6417307699999997
 33.5689938499999982 29.0796829800000012  2.2318488200000002
 25.6830901400000009  0.6960215100000000  8.0335132100000006
 24.2564701199999995 33.4932939700000034 16.7917949700000015
 14.6980071599999995 34.4064195999999995 33.6942342600000018
 33.9951957899999968 17.2556379299999989  5.5066251199999998
  9.8483107600000004  5.5590006499999998 15.1240064299999997
 19.1761429899999989 13.4351659500000000 19.8340640800000010
 11.1149506900000006 13.9762156300000004 13.2561139899999993
 20.5077806799999998 29.2698765300000012 13.8148562699999999
 31.2893261299999992  4.7042682800000000 34.6370022999999989
 24.0976924799999992 24.9175408300000001 14.1086837900000006
 34.6484998600000011  7.3371671200000002 10.7677818799999994
 24.1100433599999988 22.4987980000000007 32.2980082600000031
 17.6247552200000008 14.2609643199999994  4.0273446300000000
 32.5811670000000007 16.6737089199999993 25.0258924900000004
 15.1751275200000002  3.3682651099999998 15.4317625799999991
 11.6336825600000004 17.3027312199999983 27.0036271700000015
  4.9618285000000002 23.4516545299999990 16.9576992599999983
  3.0514894799999999 11.3836332900000006 14.7246367899999999
 26.9704548700000011  7.4349963600000004  9.9838334399999997
  8.2886513500000003  7.3631626800000003 27.6751197100000006
 20.7369582000000001 31.0565220099999983 11.9653894300000001
 27.3001428799999992 18.5013014899999995 11.3740798800000000
 29.1606059900000005 32.3049120000000016 28.6560405500000002
 22.0735716400000008 25.5185317000000005 34.9622724999999974
 30.9139019600000005 29.9502490700000017  3.8360693900000000
  2.8181690000000001  9.9663283499999995 29.0806390499999985
 18.3004414699999991 30.5197494599999999 20.4292064099999990
  3.6721198600000000 12.3184543499999997 11.2623157000000003
  5.7399065000000000 10.6084745999999992  6.6326169500000001
 34.3931417300000035 20.5330629299999998 34.1887036700000024
 14.5425155299999993 11.0584585600000000  9.5130678000000000
  6.1304496200000003 29.4668204100000004 33.8507125699999989
  3.9261767299999999 12.2522783600000000 19.0423840599999998
  5.3489062499999998 19.0674125399999994  6.0024795400000004
 13.6736005899999995  2.2050955100000000 31.0402537999999986
 18.5456617600000015 21.9372207199999991  8.8686658499999993
 25.6669911800000001 10.1207094800000004 33.7643138099999973
 21.8221330500000015 34.5901515199999992  6.6766635399999998
  4.6840880499999997 10.4678290900000004 22.8035127700000011
  8.6390648900000002 16.7635542099999988 30.0555951599999993
 24.3878388400000006  1.4073872300000001 28.9572417500000014
  9.3620503700000004 22.9806314699999987 10.4731588799999997
  7.3812395500000001 16.4931699499999986  0.7074293500000000
 24.7650421499999993  6.0633806899999998 22.2391996100000000
  9.2279247600000005  8.7313799099999994 28.3021671800000014
 24.5237260900000003 10.2644198099999997 34.1038021000000029
 22.6018534200000012 14.3504585799999997  3.1572953600000000
  4.6630423499999996  6.7528007600000004 24.3224238100000001
 21.9769169200000007 11.0427356600000000 25.2582533200000015
  0.4635767600000000 21.3346348299999988 31.2076101799999996
 31.3043069900000006 11.4876459499999992 12.8654022099999992
 33.8148804499999969 31.6956712200000013  9.1462286699999993
  0.6653306700000000 17.2125419499999985 16.1925072700000001
 22.4696379499999992 32.2049737199999981 28.9932669199999999
 19.8371729200000004 28.3652006099999987 33.9266612699999968
 20.3960460200000000  6.3455253699999998  4.2449429099999998
 14.7554361400000005 19.6152049599999998  7.7497302100000001
 14.7157205799999993 17.1157147199999997 33.8172370799999982
  1.3035564300000000 33.8729083099999997 26.9700283499999998
  0.2664334400000000 32.9467837099999983  1.5937867999999999
 11.7748273900000004  9.5240120299999997 15.0702409900000003
 25.5403003499999990 15.8279738900000009 20.7572168300000008
 21.5432644899999985  2.6462030500000000 24.7346103500000005
 19.5961403800000014  2.3314029199999999 18.8889526100000005
 16.6264463599999992  0.6839269500000000 14.7602418600000007
 30.3849401199999996 29.6886142600000014 16.5398643700000001
 15.5004417599999993 10.9246143300000007 34.9930955199999971
 23.9563881300000006 30.0153763600000012 13.4304304699999992
 10.2449367200000001 21.6514080399999997  0.2149249600000000
  7.2437876000000001 16.3381670499999991 20.5735950299999999
 15.4117324000000000 24.9865177100000011 18.4030917000000009
  5.7622019699999996  0.3284605900000000 25.4371697099999992
 32.5113692799999967 33.5834468700000031 26.9915188999999991
 11.4581879799999999  7.7653305399999999 31.9103607400000016
 12.4329257099999992 10.1824346499999994 21.1791819500000003
  8.5110378600000001  0.0132476900000000 12.6538660699999994
 13.5270646800000005 24.3761377199999991 14.7466152699999995
 11.3629139099999996 16.4940932400000015 16.2251629999999984
 11.3144830100000000  7.5159628900000000  5.7882708300000001
 18.4679037299999997 10.0580719300000005 31.0149664499999993
 13.5410967499999995 15.2130923599999992 11.4432287699999993
  1.3459964400000000 12.1621763099999995  9.6972996499999997
 22.5151906799999999 27.8096853000000017  7.3807590999999997
  8.4181960799999995 14.6214458100000009  7.6397875900000001
 21.9100166899999991  6.6504910500000003 19.8030429499999983
 14.7429313700000009 19.4475675300000006 25.2675580800000006
 16.8486394299999986 25.0828207700000014 26.9687267300000002
 13.3901269500000009 32.8636769900000019  4.8191606399999998
  5.6328243100000002 30.8781613499999992 24.2578207799999994
 21.1938345400000010  9.7770599800000006 33.0471403000000024
  8.2870661999999999 15.7216930000000001 19.4943241399999998
  6.1058603700000003  1.1951960100000001 32.6593679699999981
  0.9975349400000000  0.5698073200000000 21.7516535299999987
  5.0408717899999997 21.9320911900000013 27.6566300299999988
 24.9809881400000009 30.4676177099999990 19.2508498400000008
  9.0332041200000006 26.0616236100000016 27.7079604900000014
 12.6919241500000002 23.1691413900000001 28.7593804199999994
  8.9067987500000001  1.5666480300000001 10.6534399799999999
 27.3656941899999993  0.2223152900000000 26.4530418300000001
 26.2740498600000016 27.9560767500000011 17.7819380199999983
 31.0322636500000009 24.2552221500000016 12.5187417500000002
 17.4926381000000006 33.7686043100000006 23.9326167400000003
 15.4894782099999997  1.6602243000000001  8.3898523500000000
 28.2483887699999983 30.6701147300000017 27.6182726800000005
 10.3088647699999996 11.0902464500000004 18.7720650000000013
 12.0964321399999992 24.7349558899999984 25.4035803000000016
 27.9740277400000004  4.4842076000000004 11.0770881699999997
  7.6209400900000004 20.1400688199999998  9.1367328400000005
 16.0687956400000012  8.2483693400000000 30.3434812100000002
 32.8886845199999982  5.1207429600000003 34.3269906199999966
 28.7314116000000013 28.8347907399999990 16.3278981700000010
 22.9846217999999993  7.5385301499999997  0.0761955100000000
 20.6178841300000002 24.7786518300000012 24.8013488200000012
 21.2696999700000013 24.8474570600000000 26.2108005000000013
 14.9239367499999993 16.6048830000000009 23.2685587100000006
 19.6662077900000014 24.9542676099999987  1.3756403699999999
 20.3877085399999984  6.2175143300000002 22.7633547699999994
 33.7036629500000018 17.4631683700000018 28.4707602900000012
 23.0681906499999982 12.0802408299999993 32.6075965699999983
  5.8756142200000001 16.4482461700000009 15.6734034100000006
 12.8911055399999999 10.8107802500000005 11.7836368199999999
 17.5840091899999997 29.4424232799999999  8.8080915999999991
 22.5954642399999983 11.9674677999999997 27.2313420000000015
 17.1649872399999985 21.9404733100000016 28.5349159700000001
 16.3326366199999988 32.6236031299999993 29.8977832700000015
 32.0433885599999968  8.2315508800000003 27.6755677800000015
 28.2676472300000015  4.3470291300000001 15.5185119300000007
 34.6300822600000018 12.7924842200000004 33.2823484999999977
  6.4312199000000003  9.5127770399999996  1.2436646600000001
  7.2719038200000004 33.8875339900000014 27.7838037299999989
 27.3892382000000012 10.9264408000000000 30.6905419299999984
 20.9381999599999986 18.3266751600000006 16.4293751400000012
 13.5079108399999992 17.4575345700000000  3.7835491999999999
 30.1114073699999985 17.4237440499999998 30.8662726999999997
 34.4452916500000015 22.0168435699999989 17.0898016900000016
 18.2970449299999984  8.4342120800000000  3.8024901500000001
 33.4520292899999987 23.2562047099999987 22.0326313300000010
  2.4348293999999999  7.1778061400000004 27.3877794399999992
 21.4089694799999997 20.5500705400000001  5.0354926300000002
  1.5246518700000000  4.8239149699999997 15.5388804900000004
 26.9644348600000008 11.2566337399999998 15.2432531699999991
 28.3559526200000001 18.4956721600000016 21.7619236799999989
  2.6512110099999999  3.9034550800000001 15.3694818299999998
 14.8810558499999992 30.9057259799999997 32.5365402799999970
  1.6324761200000000 32.0262128800000028 34.5597947899999980
 21.4711122199999984 14.9831179199999998 31.2628480000000017
 14.6863465899999994 13.4271678800000007 25.4104979299999982
  4.2386954000000001 14.7536573400000002 24.7189830999999991
  1.9489795500000000 31.4992814900000013 33.4240257200000030
  7.6001930199999999 21.4441302399999998 16.4968690299999992
 27.8777979699999996 32.1504039599999984 21.8393279800000002
  8.5854105799999996 24.9955919900000012 30.9146102899999988
  6.8552132700000001 30.5694365400000017 15.5199461400000001
 23.7347517299999993 14.9723200100000007 24.7823366500000013
 16.7320348800000005 25.3102999000000004  0.2104121300000000
  1.3967213000000001 24.6949582300000010 18.1630320800000007
 31.0802332300000010 25.4799641399999999 16.7573651800000007
 31.0366518099999986 28.0070520000000016 34.5229978200000005
 33.0243696100000008 10.5800355899999996 18.6582064999999986
 23.4766368999999990 16.8363445899999995 28.4435845299999990
 21.3252721200000011 13.8484776000000007  1.3630087500000001
 18.0881289999999986 32.1841630600000030 29.2284810800000017
 18.0815823999999985 27.1553507600000010 34.9801791100000017
 16.8702794199999992  3.7861745999999998  4.2365555199999996
 13.7886731000000005 11.2288615200000006  3.4755773799999998
 34.0290457500000016 26.1719113300000004 26.3137083700000005
 29.4965628299999985  8.7315610299999999 31.3462726300000014
 16.8041133199999990 11.7325141800000008 33.3658643799999979
 10.0826810699999996 24.6207768199999997 31.3959950600000006
 12.4889918699999996  7.4863329399999996 32.7977644699999971
 17.0274669900000006 20.6377333500000013  8.3844504600000000
  7.4588269699999996 25.5048935700000001 15.7463088599999992
 13.2129907600000003 30.7356636999999999  9.2998415800000007
 27.4373744799999990 14.9528664599999992 12.8265648500000005
 11.0754530500000001 15.1393488099999995 32.0354050299999997
 14.0523239800000006 32.4090583199999998 29.0432478699999983
 19.8670168899999986  4.9528628100000001 12.7652843800000007
 31.1345718900000001 28.7496760199999990 20.8048720699999983
 17.4848550399999993  7.9586293699999997 25.6839029100000005
 14.3562838100000008 31.0620051100000012 34.1199091599999988
 13.3133051400000006  1.7194827300000000 24.3462120099999986
  1.7852296100000000  9.3540269800000004 28.1313890999999998
 24.2566064899999994  0.7852070799999999  1.9753637500000001
 19.9385853699999984 17.8043027199999990 21.9158742300000000
  0.0981160400000000  4.0362732599999998  7.6446364200000003
 33.4042779899999971 25.7001124499999989  6.7898889499999999
 17.6636212300000004  2.4819482200000000 29.1037714899999997
 22.0874653000000016 14.0293328699999993 30.9974940900000000
 34.8831216800000021 30.6261218500000005 23.2299023899999995
 34.9695162300000035 12.6592194899999999 33.5019797100000005
 22.7729910500000017 20.6605918099999997  7.5665560100000002
 16.1069337600000004 19.2356815300000008 34.0994389000000027
 19.2696734899999988 10.4024027500000003  8.1829399499999997
 15.6716847999999995 19.0064810400000006 31.9268360300000005
  9.3331180499999995 26.7151219500000003 21.0546509399999984
 15.5182942399999995 30.9712937599999982 14.5342162300000002
 11.5722489300000007 34.7877963399999999  3.4931230400000000
 13.9188522100000007 29.1490466300000008 13.0267216399999999
 15.1105571399999992  3.1338503400000000 30.6227246800000010
  1.1336820200000000 13.7937191600000002 26.0378641199999983
 13.3823000000000008  6.3160276199999998 33.4762253800000025
  9.9199864200000007 20.2117577100000005 24.0119153099999991
 18.2606435500000011 26.6361266800000003 23.3811912100000008
 22.6806989100000003  9.5065666300000000  1.8653344400000000
 25.6758854499999991 19.6067493800000001  5.6368736600000000
 28.9356814500000006 31.9981796400000000 18.4052433800000017
  6.9255063999999997 21.9861337200000015 25.9494362999999986
 32.1759479600000020 31.1573572799999994 26.7037851099999983
  5.5163302500000002 32.9625639799999988 21.8128099700000000
 17.8971994899999984  8.2318920400000000 33.4095963500000011
 10.0858192599999992  7.3643619300000003 12.8309163099999992
 14.2104084700000008 29.3351434299999987 25.7556411199999999
 30.0603570500000004 34.4209952599999980 33.6673401799999965
  1.9864871500000001 31.8896114399999995 13.6994596800000004
 16.8188767000000006 14.8606643500000004  3.1856898999999999
 26.8901910700000002 23.4412936899999984 17.8229789600000004
 20.8074399999999997 25.6441509600000010 11.2451236800000007
 31.7936796400000006 11.3737888599999994 24.2694382600000012
  6.4488340500000003 25.5538815399999990 34.0871247600000018
 22.3058385900000005  9.2291848999999999 29.9105525599999993
  1.6567950400000000 20.7542777399999991  7.1459218199999999
 16.5079802899999990  4.6247514599999997 28.1977350800000011
 19.3335542199999999 34.0457689799999983 27.2392931099999984