Na Cl 
 1.0000000000000000
    35.0000000000000000    0.0000000000000000    0.0000000000000000
     0.0000000000000000   35.0000000000000000    0.0000000000000000
     0.0000000000000000    0.0000000000000000   35.0000000000000000
 2200 2200
Cartesian
 12.3908212500000001  2.5326918100000002  6.9512908500000004
  0.3453479200000000 29.2624074999999984 28.2828282400000006
 14.4941803000000000  3.6882557700000000  3.5147496500000002
 27.3973153200000006  6.6785331299999999  1.1063345200000001
  9.1642008500000003 22.7237000500000015 32.2267269800000022
  9.6003850800000006  3.6719675399999998  9.7583707000000004
 33.9364361900000020  9.6829632799999992 26.5638211200000001
 33.1415870599999991 20.6537019499999985 31.7686530100000013
 10.7511688700000008 24.8952023099999984 23.6652673600000014
  2.1485000900000002 24.8409824700000001 22.3924535999999996
 29.9676379299999986 16.0907373100000015 27.0220364900000014
 34.3673585499999987  7.1952147300000000  4.9738940999999999
 16.2381648399999996 19.8364957000000004 16.9831552700000010
 10.8906089099999992 23.4638713400000007 12.2856664599999998
 20.1962296399999985  8.0315754699999999 26.6889519100000001
  1.2146942800000000 10.3667842700000001  4.5432900500000004
 24.0759020200000009  8.6853305600000006 24.3507501799999986
  8.0582460499999993 19.9413554799999986 29.3616125100000005
 15.6215355900000006 16.1486568000000013 20.4748061700000008
  0.0673729900000000 12.3379268700000004 23.5369337799999983
 15.2459772900000008  4.1402519199999999  5.2139986199999999
 26.6747912300000003  8.2162138500000008 14.9061524500000004
 32.7042970899999972 21.1211336799999998 12.8937292299999999
 19.9071664900000016 14.7471944500000003 21.0970389400000009
 27.9334741899999983 22.9006962899999991 32.0025641200000024
 22.0951666499999995  3.4658582600000001 10.6797666600000003
 14.8383240700000005 12.7126897900000007 22.1773521100000011
 19.7569911400000002 10.7501520100000008  7.8048771600000002
 31.5703659499999993  3.1405026299999999  2.4276532199999998
 26.5676252099999992 27.0768410800000012 10.4679789799999998
 25.3227818999999990 34.9953792299999975 27.3387421800000006
  2.2398106599999998 19.4977256300000015 28.2746703100000012
 17.3839781100000010 27.5200867000000002  5.0971882500000003
 23.4428977500000002  9.7824731499999995 19.0262567699999998
 14.2975161899999996 23.3545603899999996 30.0963933399999988
 10.0829332399999991 28.8589123000000001  1.7390303499999999
  2.8830669200000001 15.7057721299999997 31.9121679100000009
  7.8060473799999999 16.2383058200000008 22.2059289900000003
 10.0485156100000008 10.4019034500000007 34.7913111700000002
 27.5667930000000005 20.0898904700000003  5.7891344100000000
 32.9819837900000010 33.2015613200000033 13.6410303600000002
 14.7972501100000002 22.3825456000000003  3.4438660799999998
 26.0572123699999985 23.5682557800000012 16.6748876999999993
  9.8376418999999995  1.2474110100000000  0.2369228400000000
 26.9622149200000010  8.9461400999999992 32.7765940099999966
 11.2155586799999991 24.8947561300000011 16.1663533900000012
  2.9014128299999999  9.0454680799999991 22.1820498300000004
 28.7114390899999989  8.1567651899999998 30.7525644199999988
 13.3502440100000008 27.5509983200000015 34.6287194399999976
 24.8875971599999986  0.8454350600000000 34.2271242500000028
 30.2771859100000000  3.6636370800000000  9.7484204400000003
  6.7023821899999998 16.9374754000000003 13.1490246000000006
  5.6563935000000001  7.0054977799999998  1.4012147200000000
 30.2157823299999997 21.6535421499999998  1.0829404800000000
  0.9807140900000000 32.8616272200000026  5.3686962400000002
  1.6777752500000001 23.3686837499999989 22.4678642000000011
  2.3936679700000001 15.3775176099999999  9.9384796499999997
 16.0274429800000000 13.2341431400000005  1.2437914900000000
  9.4035720200000004 20.8348905500000008 32.0054099899999969
 34.9256701899999982 10.7388947500000000 28.6041221099999987
 24.4803183000000004 15.7096085799999994 26.3914328500000011
  5.8119782500000001 31.9183804799999997  7.2208093499999997
 15.1427280000000000 18.8294884200000006 32.2118097800000029
  3.8869503500000002 17.9745846799999995 13.8447800200000000
  9.2178410500000005 14.2544450099999995 34.4573532300000025
 14.7356949099999994  2.8244196300000000 10.0207003500000003
 32.9107972199999992 26.7689572799999986 15.8650750699999996
 14.3167308200000001 31.2948960400000011 28.3177015099999991
  5.6092523300000003 19.7039840999999996 29.8607647999999983
  4.8740334100000000 17.8795382499999995 26.3994242099999994
  0.1226881500000000 32.0197307400000000 30.6146215800000014
  4.9449565499999997 19.8847260599999984 22.5909379699999988
  5.8944150899999999 17.4345005499999992  1.6507459000000000
 24.0864148500000006 10.3743821300000008 27.2404048799999998
 29.4847597800000010 20.3576751099999989 26.4454981400000015
  4.4871809200000001 26.0496689799999999  1.7865913700000000
 32.2411090499999986  6.3198345099999997 27.4585941399999989
 21.5917480799999986 12.5099262200000005  9.3299198499999996
  7.9629526400000001 28.3449716800000004  8.9390063699999995
 17.8799823000000018 33.8624542800000015 26.2690167700000003
 13.3648428700000004 27.9141704900000001 13.4633718600000005
  3.8908288700000000 13.1608447000000002 29.3168028000000014
 32.5046961999999979 26.4289926800000003  7.0799572399999997
 27.8413768300000015 15.0203239800000006 26.5850560099999988
  5.0363126899999999 15.3073577099999998 20.7611023699999997
 16.8475852800000006  7.3657599700000000  1.3277508099999999
 20.5079281100000017 31.7477832999999983  9.9939602799999996
  3.4903862999999999  2.9225365600000002 14.0720393700000006
 13.7656758200000002  9.7134804999999993 14.4666914700000007
 31.6835517899999992 15.4549509500000006 16.3605359399999983
 11.5276037999999996 19.4370306399999997 23.1739223599999988
  4.1130266700000000  2.6391761699999998 11.6338373199999996
 19.9039033100000005 29.9028944299999999 12.9467132399999993
  0.4095006100000000 22.4767255699999993 11.3266574799999997
  2.1322783300000001 32.2019351400000033 12.9238987299999994
  1.9658912500000001  0.7343079700000000 21.5140718500000006
  2.0055965800000002  3.0617746200000000  9.2459816000000004
 32.2127788800000019 20.1746813399999994 30.8693120100000016
 15.5269863800000003  2.0601415500000000  9.7990767900000009
 18.0835921400000004 25.9330604499999993  1.9469593800000000
 32.5462611299999978 25.0107910400000009  6.3649941400000003
 16.4565587099999995 15.3823123800000001 20.5241386100000014
 24.1975498999999985 23.2211089100000017 27.1774156900000001
 20.8255253399999987 14.6043672000000004  0.5995164400000000
 31.0728774600000008  6.8514265099999996  1.9253625900000000
 19.5690769700000011  2.4766351100000001  9.8062678600000002
 33.9438646999999989 29.5340189200000012  8.2560206199999993
 18.9385153799999983  9.6279759400000007 12.3917029400000001
 17.3513741599999989  4.5454947700000004 26.1305516599999983
 31.1816953199999993 15.7531615600000006 23.3863494900000006
  4.3759347699999998 11.3356096300000004 12.5910185299999995
  7.2484943700000004 25.4449161400000001 22.7055654800000006
  7.4389895900000003  7.0979629900000001 15.4640274299999998
 28.9090341299999984  4.1366640800000001 14.9131539600000007
 10.3785721199999994 27.6616058900000006  3.6102047000000002
 21.7104666799999997 12.8135374199999994  2.1233813700000002
 22.6706979599999983 16.4206123400000017  6.2316071700000002
 14.6217679999999994 13.0546959499999993 30.2748771800000007
 34.8608113499999988  5.6563181499999997  5.7391521000000001
 32.9294042100000013 24.4966245600000008  9.7689462799999998
  1.6800910099999999 27.2895702699999987 15.8075006400000007
 26.6631833699999987 23.1228288599999985 20.3846560500000002
 24.9142159599999999 28.2275855100000008 31.0296899000000010
 15.9981357499999994 10.6675845999999996 20.0943605500000011
 10.9177008699999991 23.7985521200000001  2.2655201500000000
 31.5971682999999999 33.6075730499999992 12.4801712600000005
 34.2384246599999997 10.2032888600000007 21.6758898400000000
 26.6805755200000014  0.4328292200000000 29.5606857199999986
  1.4448740799999999 28.9985938899999987  4.3675110400000001
  9.7579984700000004 27.6803105199999990  2.9789442199999998
 17.1154446900000003 29.2788820700000016 25.1709679699999995
  3.4586738600000002 29.9315285799999984  4.2008028700000004
  7.8938157799999997 21.3617363500000010 31.7028097899999999
 24.1241954999999990 15.3537428200000008 30.3556055299999983
 26.6621391299999999  5.5723131900000000 28.8678118200000000
 11.3132734300000006 22.1864991600000003 33.4913016699999986
 18.3071827999999996  3.8213928600000000  1.1497540900000001
  3.9170583600000000 33.9997982599999986 24.6092803000000018
 13.1740514900000001  6.2833962600000000 10.0408950899999994
 22.3237618399999995 30.4652376599999997 14.2493373900000009
 18.6134698199999988  6.5872461299999996  6.8456839100000000
 10.4094420599999999 21.4927161600000005 28.0805542400000014
  9.8751187500000004  1.1208484000000001  8.0991388900000008
  7.2273942199999999 20.8147113200000007  7.8532200000000003
  4.0684907499999996 24.1239679799999998 11.5297788000000008
 20.9923187800000015 17.9017146300000007 14.1178553900000008
 13.7956122299999997 22.8548335199999997 31.1870167599999988
  0.1906398100000000 19.0832910399999989 27.8724361700000003
 12.0346925500000008  2.0776659500000001 24.3316877500000004
  2.6760765900000001  1.8191687400000001 19.7689327000000006
  1.4518349500000001  5.9899790700000004 13.5782788199999995
 10.1320858200000004 14.9663497299999992 29.4399867899999990
  2.8579840600000002 14.1381180499999992  4.3500136700000001
 30.6798256400000007 15.8294946099999994 11.3158691800000000
 30.8133814999999984 20.5029485899999990 18.0569340800000013
 32.8910296800000026  9.5357864299999999  2.9625704200000000
 21.9209704000000016 15.7494316300000001 30.6974447800000014
 31.9544195299999991 17.9290403000000005 18.3803169799999999
  7.9875123900000000 21.1207955900000002  7.2114720900000000
 33.2114630299999973  5.0590679600000001 12.7552572400000006
  2.6084234600000000 19.7730546400000016  0.7294077500000000
  9.1561315699999994 27.1033646499999996  1.2495977899999999
  1.9899833400000000 20.6499135799999998  3.0974606900000001
 14.0218637899999994 10.4646442900000007  4.2765080900000001
 20.2715505100000009 13.9493858900000003 17.3285791300000014
  6.4294972300000000 15.5599457300000008 31.0078967699999986
 34.7210021300000022  0.8827470400000000 31.3295573400000009
 15.8701319999999999 29.3084400100000018 31.9512828499999983
  0.2109300200000000 10.1008961399999997 15.7614195400000003
 22.1781645099999984 33.4109532200000032 32.8907244600000013
  4.4060318299999999 27.1770209200000004 14.1905642699999994
 10.8137130700000004 26.0755191599999989 16.2505367099999987
 17.7705656000000012 14.8959692300000004  1.5547888200000000
 21.3356156500000012 12.6922917500000008 29.3474729399999994
 22.9777853400000005 32.6382725699999980 31.4470416999999998
 30.4298340799999991 14.2213612499999993  3.4184704099999998
 19.2321555999999987  9.8392274299999993 27.8954548399999993
 13.9094604499999992 11.3017833999999997  4.0735769099999999
  4.6070948899999999 11.4438831299999997 12.3437279199999992
 16.0351419100000001  2.6301279399999999 34.5603214899999998
 30.3232054399999988  7.1137751299999996  1.2185699100000000
  5.5045599300000001 10.1387152799999996 21.3877861799999991
 14.5223109600000004 21.4803184199999997 29.7117686600000006
 20.6958623800000012  5.3590471700000002 14.5058168999999992
 24.2645668699999995 29.5754634299999992  4.8138024899999996
 20.5784716299999992 27.3727583599999988 13.9498239599999998
 24.6913534100000014 27.5767597400000000 12.6008805400000004
 32.9992557300000016  8.4911061900000000 15.0216729900000008
 14.2579303599999996 23.0354966200000000 22.5916768899999987
 18.3135326300000010  5.5428597699999997 23.8441646499999997
 33.8752549399999978 31.4097248799999988 33.2460458799999969
 26.2931074199999983 33.2563432600000013 24.3611718500000016
  8.2152466999999998 33.6512922200000020 12.2682799599999992
  7.9812805400000002 21.3819827999999994 21.9849318499999988
  5.7495381099999996 32.4870615099999966 10.0427452899999992
 18.4200400299999991 10.6127332600000006  8.2078552499999997
 14.4231373000000005 34.6686387800000020 30.8119457200000006
 31.3717085900000008 24.3063075499999997 31.1109726799999997
 17.1177735599999998 33.4202765400000033 14.5877853399999999
  1.9081421000000001 10.1443067700000000 10.3638933600000005
 25.9556635500000006 31.8372405600000015  8.5021059700000006
 24.8949936799999989 20.1587800100000010  8.6155893599999995
  7.2104528200000004 16.0805972799999992 31.5984239699999989
 19.7116908100000003 19.3874108400000011 29.2139364599999993
 18.6300257199999990  4.8422612500000000  8.8848766700000006
 18.1222362299999986 10.4243098199999995 26.3750687299999989
 10.7802141700000007 23.0595455399999985  6.7819345899999997
 23.9747163599999986 23.0578659399999992 13.5528076500000001
  2.0382180700000001 26.3311076200000009  6.9257196700000003
 25.5704151800000012 31.9679611699999988  0.5233802300000000
 11.4515249200000007  0.7793389500000000  8.3496888600000005
 18.2206748099999984 19.8815177399999996  3.6686625199999998
 24.2109105500000013  2.7735347699999999 29.7988170900000000
 13.7187477399999995 25.9932351200000014 33.3027179899999979
 33.7811860999999993 25.3948138999999991 20.6371870999999985
 34.2036497300000022 20.7410677499999991 30.1256394699999994
 11.6225547400000000  5.2774720400000001  8.4725496699999994
 18.1423450099999997 33.3926049299999974  4.5110357600000004
  6.9780525000000004 30.1284327900000015 23.5699307699999991
  9.8264944599999993 23.8923486300000008  3.7034529900000002
 13.9344541300000007 11.3705312400000000  4.5185459600000000
 28.2020098399999988 21.1794283599999993 12.6524785499999997
 25.2069104700000004 12.5441854100000008 25.1241239599999986
 21.1513229299999992 30.2844485799999994 20.7272530500000016
  7.9419948700000003 26.1077575300000007 33.0807635399999995
 13.3927978099999994  7.7527961699999999 31.2452792799999983
 34.4089391999999989  6.0410747799999998 32.3439029500000004
 18.9769175899999993 25.0539352000000015 31.4888281499999998
 32.7347928200000027  8.6629736099999999 33.5975269200000000
 18.6349026299999991 16.8084917500000017 15.3208120399999999
  1.8880372000000001 22.2412053100000016  7.9377015599999998
 23.9501591000000005 30.3239522299999997 19.6651974299999992
  7.9732377000000003 26.2059503800000009  3.4080355400000002
 18.8532773800000015 12.0329968399999991  8.5779031600000000
  3.8184754700000001 22.1172767599999993 25.0705188399999983
 30.2100600999999997 30.4800252799999996 17.7848109399999998
  9.3174792499999999  8.8737497699999999  6.1123167299999999
  4.7072970800000000 15.5420167399999993  9.6754231399999995
  4.8366673699999998 19.8685028199999998 29.9269636500000011
 32.4780049900000023 32.8298026800000002 30.4936463899999985
  1.7147990500000001 15.6276116999999992 13.2698621200000009
  6.5727240599999996  7.7732365600000000 24.7868102099999987
 21.9192208499999985 21.3449014199999993 28.7582342100000012
 24.6423473500000014  8.9318893900000003  3.2649633499999999
 29.2389672599999990 19.3227699800000003 27.7950789600000014
  6.8921302300000002 21.0327997199999999 33.2648993099999970
 28.1627632199999987 26.5615224099999985 29.5072239200000013
 12.9124894399999999 20.2099831700000010 29.1871873400000013
 24.0575875699999990 15.8743058500000007 29.4584573300000017
 33.2923686099999969 34.8393075400000001 29.2418642700000007
 33.0128436600000015 26.8633872199999999 27.9490223600000007
  4.2187830999999996 30.0875030800000012  0.6642783799999999
 34.5267083499999998 25.3873060399999986 34.4526746700000004
  6.1031063999999997 24.9093438399999982 16.3418883599999987
 13.1175945200000008  2.4111001700000001 28.3605465899999984
 25.7066006899999984 10.8377832600000001 10.6232462800000000
  9.9001938900000006  2.5586630200000000 23.4493878299999992
 13.8613207500000009  7.2178339300000003  0.1348111300000000
 25.7707236699999989  3.5527398400000001  0.8985030500000000
 16.1407092699999986 26.9006750100000005 24.6449538299999986
 17.7390130200000016  9.5918711999999999  0.5792886900000001
  6.1049449999999998 20.8105888999999991  8.5677034299999999
  7.3914832800000001 13.6594801199999996  9.8823829300000003
 18.2099392000000009 14.4482137300000009  1.1280933099999999
 24.8641788699999999 27.2543509899999989 18.8770449199999995
 26.4939752599999991 14.2421566899999998  2.9274122400000002
 26.0174517200000004 20.3110947300000007 13.5691244300000005
 31.2742360499999990 31.0853330999999997  6.1934602400000003
  3.4862635000000002  3.6307197699999998 16.5071124500000010
 25.0389036000000011 23.8527284299999991  2.8066857800000000
 26.9679058900000008 34.5942727999999988  5.9430054999999999
 29.0935145599999991 24.6992775699999996 20.7580854200000005
  1.1417128000000001  8.7670486099999998 32.7860475199999968
 30.1007158699999984 12.7316754700000008 26.2696185299999989
 23.4786250800000005 15.2516542600000005 29.5530848299999995
 13.6968095900000009  7.2787353200000000  8.7045189999999995
 31.8508916900000010 27.9366601000000010  6.4463277200000002
 18.4300142800000017  3.2500018000000002 22.7801882599999992
  1.6241333200000001 31.8086290399999996 17.6282213600000013
  2.5164265100000001 13.5803214600000004  9.4628458900000005
  2.0509291400000000 29.9660614099999982 24.5941728700000013
  4.2633884000000002  9.7688011600000006 34.2410812899999968
 19.8532733300000004 18.9648917799999985 32.9360707399999981
 31.5409617299999994 33.9438287600000024 28.9300188700000014
  6.8272206700000000 15.0977749800000005 33.3040447500000028
 21.0801556599999991 24.1761692900000007 13.8772384100000004
 29.7460273400000013  1.4815748700000000 15.8289173299999995
  1.6135192100000000 28.4174204199999991  1.5850234100000000
  4.4883885799999996 11.3468098099999999 25.8324955000000003
 26.7518493200000016  8.3314687400000000 26.9951159800000013
  1.9143469399999999  9.4289553500000007 27.4525876599999989
 25.6407414799999991 23.9420915000000001 34.7318308899999977
  7.8817944899999999 29.3200224700000014 16.6176220000000008
 27.3730164000000009 18.2865716999999997  7.4105192999999998
 18.5978944499999983 24.8119819600000007 24.9808505600000004
 28.1554343100000004  8.3844097600000005  6.7748414300000004
  9.7598988000000002 24.6191756200000000  4.4847113099999998
 19.5429500699999998 18.3617524299999992 10.9731404099999992
 10.5709357500000003  5.7171767600000001 13.5898123000000002
 28.9752865799999988 32.6415681499999977 16.8359004900000002
 20.9794587800000016 11.7636531600000005 31.7186203599999992
  9.8524413800000001  4.9823004600000003 17.5237741599999985
 32.0723280899999992  4.6181343300000002 21.9836582900000010
 19.3449269000000008 15.1864461800000008 18.6008878099999997
  5.1214879699999996 11.8482814100000002 19.0655950300000008
 10.4556907399999996 28.7942105200000000 34.2962489599999998
  2.0563486599999998 16.0520078200000000  6.0954310100000004
  0.9089037400000000 15.9451711199999995 30.4909448400000009
 26.3098829999999992  0.2035654800000000 26.3249879699999987
  9.0728662100000008 27.6623727300000013 16.4985522099999997
 21.1669140300000009 12.3240483699999999  0.2808809300000000
 30.7657597600000017 25.1242696400000014 23.5999199500000003
 23.8545359899999987 33.1863815999999971  3.5155191000000001
  5.3294904900000004  7.7465940800000004 32.0066497600000019
 20.7624391800000012  4.3152913599999998  7.1018277200000002
 10.4185486500000000 34.5471499900000012 18.9499290400000007
 26.4572953700000006 27.7632763599999990 32.3857806299999993
 22.8150229399999986 27.0905558699999993 30.9724760600000018
 34.4051329899999985 12.0702107900000009  4.0326898699999996
 17.4185727200000002 13.9516245800000007 19.9543580600000006
  2.8959517300000002 22.2607442999999989 21.3293773299999998
 12.8447315599999996  1.4033664500000000 31.3799085300000016
 22.1226830300000010 10.9337658999999991 13.8035566200000002
 16.3760975600000016 28.0716770199999992  0.6756022300000000
 14.8467124699999999 13.6964360500000009  1.0006958200000000
 18.6946931399999983  6.7076131099999996 34.8535857299999989
 24.2153289899999997  7.0343134100000002 30.7054361000000000
 26.2645815899999988  8.8227453899999997 23.8817566600000006
  0.6842317100000000 19.8823266200000006 17.2634572400000010
 31.9258046299999982 26.9984536499999983 23.0104747100000004
 22.0484945500000009 24.0478463299999987 27.1533133599999985
  0.7376222200000000  7.2165723899999996 13.9320811199999994
  6.4873534900000003  7.9501683900000000 23.4801039500000002
  5.1071464600000001 15.8106261299999993  9.1933825200000001
 23.1799563900000010  0.5269630000000000  1.6671795500000000
 20.2867341199999984 24.1403647300000017  7.1099365700000003
  6.7039689100000004  8.6055156000000004 12.9006109099999993
 30.5675601800000010 18.9840216599999998  4.4520071899999998
 29.8848278399999998 24.3015083599999997 20.4510806100000018
 21.3117461100000014 31.5168297499999994 13.3576598400000002
 12.1889419300000004  4.5469477999999999 15.5516021099999993
 30.7766167800000012 32.5982994399999981 24.6187474900000005
 32.2890300199999984  6.7274644199999996 18.4944464900000014
  1.1620980200000000  1.3813504400000001 11.3568789199999998
 20.0639954600000010 25.5716271000000006 17.3365958800000008
  1.1669790499999999 13.4168834399999994 27.5599282999999993
  9.7149244600000006  3.7354407799999998 26.5531159899999984
 28.2205189099999991 17.2613667100000008 31.7902590099999998
 23.8831194800000013 23.5891187699999989 17.3192400500000012
 24.4675528900000003 11.1613957599999996 24.5784812300000013
 20.5339580899999987 14.2336463500000008 34.8941746599999973
  6.3935269600000000  6.0076695200000003 30.9016165299999983
 33.4690663599999993 29.5982463299999985  2.7260013700000001
  0.9050743100000000 21.5839669500000007 21.7325481099999998
 33.9360936499999966  3.9259251800000001  8.0245519499999993
 13.6446070000000006  4.9099097199999999 25.8526488100000016
 15.4685018599999999 34.1107380199999994 34.1738626100000005
 10.1088487100000002  9.4201928800000001 20.1817624500000008
  9.8814266100000001  2.1369637899999998  5.9503930499999997
 13.2559279799999992 17.3814983500000011 20.8427137999999985
 23.4908788500000014 11.2008786499999999 23.1674478000000015
  0.2952276100000000 26.8905225200000011 29.0120641900000003
 20.7628903300000012 11.8977518199999999 10.5148034100000007
  7.3008774699999996 30.8477120499999984  2.4963872500000002
 26.7805815400000000  1.2340265200000000 20.2837477499999999
  8.9483716500000003  0.2823947000000000 21.2077209499999988
 33.1659654500000016 10.3813115600000003  3.7033927400000000
 12.9217610799999996  1.0384344500000000 22.9678805399999995
  6.1681896099999998 33.7627434099999988 30.4285636199999985
 27.8687953899999989 20.8441462299999998 12.5656907300000000
  1.5640526600000000  2.0331317800000002 10.8457893199999997
  5.1810346599999999 32.6495158299999986 10.4124969499999995
  2.8362812100000001 34.3782435000000035 15.1384744900000001
 17.3408097699999999  1.9897510700000001 16.7462379800000001
 19.0218017000000010  9.4212327400000007  2.6585928499999998
 22.9699954700000006  6.7137978499999997 33.8004873399999965
 34.7907759699999986 18.5717120199999997  4.7638438900000004
 20.9241759899999984 27.6258602099999990 32.8325863900000030
  7.2794078999999998 20.0084963100000017  2.7975073300000002
 12.7057458899999993 10.4711207000000002  8.1255343599999996
 30.8559788399999988  1.4363945700000000 26.4836184900000013
 15.1759171199999994 16.6390090199999996  1.8245385999999999
  5.0202359500000000 25.1056765599999991 26.1059089299999982
  2.0113297999999999 29.4199155400000016 15.5205334399999995
 33.6055642999999975 13.7191708699999992 33.1048220799999982
 32.7446700400000026 34.6693050599999992  7.0101887800000000
 10.2428064200000009 20.8474904800000012 33.7724833700000033
 19.1279162000000014  7.8876462900000002 22.6712265899999998
 25.3053023800000005 21.2171519999999987 16.6736568500000004
 24.1507087499999997  5.9619684099999999 32.8031106500000007
  1.8807602400000001  4.9373589400000002 32.1917200800000032
 16.2394189799999999  5.9148646999999999 11.1310718499999997
  4.9246106799999998 27.9316741700000009 27.6478267899999999
 17.0248077699999989 10.9441951399999997 14.0876575099999997
 31.2597137399999987 32.0087769100000017 21.5134896200000014
 27.2199740400000003  1.1037476900000001  0.6874282600000000
  3.6068297199999999 34.9870554100000035 27.4402785499999986
 28.7615487600000002 10.3500524200000008  3.3310030400000001
 19.1680814800000014 17.9454917800000011 14.8803079300000007
 18.3354029899999986 23.1181141299999986 11.1442325699999998
 16.1168240300000001 10.4614252400000005 20.1739913599999987
 19.2727850200000006 27.6978499499999984 17.7641121200000001
 11.4323525200000002 28.5487375900000018  3.6326984599999999
 14.7629989699999999  6.7236594199999997 24.5438527800000017
 33.5337562200000008 31.8407900499999990 33.1584099900000027
 23.3966702600000005  2.8370785900000000 12.7799225599999993
 32.1584461500000032 17.0044034900000014 18.0094034900000004
  4.0444016500000002  4.2584902700000002 32.4459230200000022
 18.6281402400000005  8.1529399300000005  1.4614845299999999
 28.1704290399999984 15.4008958299999996 17.8562611800000006
 20.1816083500000012  7.2914853600000002 12.9944225099999997
 32.2591456500000007 29.4610212099999984  6.3834577200000000
 11.7739781800000003 30.2512580699999987 22.8944490000000016
 32.0043463200000033 17.0486384000000015 26.4655291900000016
 26.1491376100000004 28.5557280899999988 16.1220755199999992
 28.7232263000000003 31.2643980399999997  5.7377862899999998
  9.9741153300000001 19.9563554799999991  1.4665756900000000
  8.7376503000000003 28.6885337599999986  8.1868572999999998
 11.5107031400000004 15.3877238999999992  6.4755888600000002
 20.2219187900000001 19.7891623299999999 26.4512685400000009
 31.4704139599999984  3.2473598199999998 13.3764605000000003
 13.1716353099999992  0.6745966900000000 32.9464898199999965
 31.6544086399999998 15.6459744799999996  6.8930683000000004
  1.7989814600000000 30.4814247800000011  6.3062985100000004
  9.9590315399999998 11.4431545499999991  0.0985514400000000
 11.3541241700000004  8.7649949800000009 33.2706633999999966
 20.0397141699999999  2.4760502700000000 34.9768176500000010
 30.3742241700000015 24.5856612900000009  1.2093326799999999
 25.2543599400000005  5.0274990400000004  7.1764145199999998
  3.9988705599999999  9.0175483300000003  7.9348237299999997
 10.5824926999999995 24.9548265299999983 10.7695531300000003
 18.8794389100000011 31.7296918099999985 20.9302011700000001
 23.8910564000000001 16.9849261100000000  5.6531563800000004
 22.5992005200000001  4.7632024599999996 10.1436653900000007
 34.5842045300000009 11.7254756199999992 20.0686886199999996
 34.4496505400000004 25.2767078400000003 30.6286950800000000
 31.4782232600000000 29.4983506599999998  3.7795361900000000
 32.6647353899999970 21.2077497599999987 33.6502611800000011
 29.9396418599999983  0.5607301700000000  9.1919245000000007
 33.6750855200000032 27.1623305200000011 12.2890409599999995
  6.9114232299999996 30.2901567900000011 11.6651962099999995
 21.9527013000000011 24.0507942899999989  6.6996700999999996
  6.3553312200000001 29.0517658700000005 23.0289982400000000
 18.3734025299999999 31.7762597000000007 33.5967499200000006
  5.5759011500000000 19.1705739400000006 24.8362506299999986
 12.8644110499999993 17.1565317399999984 19.8289863699999991
 30.7739897700000000 23.4460329300000012 27.4753825200000001
 23.7539997900000017 23.4744715799999994 15.4437666700000005
  3.3864077500000000  5.3550918200000002 18.0282842199999997
  6.3728783499999997  8.9664993200000005 24.9539887799999995
 31.6893669899999999  8.1909241799999997  9.8626903899999991
  2.2373616500000000 13.3372452900000003 19.0815788300000015
 34.0954633799999982 22.4530242400000013 32.9783539800000014
  7.1953651199999999  7.5016548399999996 10.3129793200000002
 10.2434582499999998 31.8027638999999986 24.0529482899999998
  7.9018715899999998 16.7558114200000006  4.9224837700000004
 27.1847325799999986  3.8004828800000001 34.7156819599999977
 16.4666347799999997  9.7307774200000008 25.1761601800000001
 20.7242172400000015 26.9191935700000009 20.8863153200000013
 21.3015379600000010 34.9484933299999980  9.3274093300000001
  0.7686871800000000  4.3254443699999996  2.7434828900000001
 14.7169940599999993  3.5192302400000002 32.7025620699999990
 26.9606688000000005 17.9604418999999993 21.1470669600000001
 28.7544075700000015 30.3279840000000007 17.4271546999999991
 18.1890273299999983 12.9823665300000002  4.6342498699999997
 12.8375499299999998 20.7016952600000010 33.3922267800000014
 33.1554760799999997  9.0864350799999993 10.7144378699999994
  2.5572997000000002  0.5360091600000000 13.7059071800000005
 20.1819637000000007 13.2638268700000008 10.1382434999999997
 13.4585393000000000 27.6699426499999994  3.7261631400000002
 10.6238610799999993 20.2331144300000005 32.9542148000000026
 21.4881222700000016 20.8709953199999987  8.8183720900000004
 20.3797445199999991 12.3661731699999997  8.2724795800000006
 15.5642369499999997 33.1304330600000014  8.1885225500000001
  4.4985039899999997  6.3565247999999999 14.1122372899999995
 24.3721889199999993 18.3791996100000006 24.2079045599999993
 22.2520124199999998 14.5727054400000000 28.4604087499999991
 24.0898803400000006 33.6188873999999984 27.6404783099999989
 33.5189876100000035 28.6247106299999992 20.5115346800000005
 22.3633653999999993 31.0823295699999989 25.7130263300000017
 13.8335396199999998 30.3003223000000013  7.5169502599999998
 22.3830694200000018 12.2477488599999997 12.9150946100000006
 28.9951929700000015 17.2082883899999999 14.7030068499999995
 13.4361114799999992  0.7257025200000000 16.8822200900000006
 29.4730656999999994 33.8152378500000026  2.7025270199999998
 26.3716953799999985 24.0841951899999991  8.0685451700000002
 18.0387296699999986  6.9295325500000002 19.6535875799999999