Na Cl 
 1.0000000000000000
    35.0000000000000000    0.0000000000000000    0.0000000000000000
     0.0000000000000000   35.0000000000000000    0.0000000000000000
     0.0000000000000000    0.0000000000000000   35.0000000000000000
 Na  Cl 
 2800 2800
Cartesian
 33.6851848399999980 21.9016835800000003  6.5958913499999996
 12.1459075999999992 16.2690803700000011 14.4337683899999991
  3.3452750800000000 14.0382772599999992  6.3258469799999997
 23.5101304499999983 19.7624714899999994 32.8583787700000016
 20.7720225499999991 25.3830664100000014 33.1971044200000023
  8.7340675399999999  3.4731530500000001 28.2832847200000010
 22.1662135499999984  7.5512167500000000  3.2999909900000000
 22.9486372400000000 32.7460235300000022 22.4175082199999984
 31.0605835900000002 10.2283517199999991 22.9074404999999999
  5.3524179500000004  8.0884893000000009  3.2395814800000000
 22.6459232099999994 20.0314711400000007  3.9354225700000001
 27.6471096500000009  4.9719251900000003 18.1466320799999998
  0.4452908800000000 29.0037970099999995 21.8163088599999995
  6.7029728400000002 26.8644421700000002 10.6795053899999992
 10.4470656799999997 23.8328294800000009 18.3651483099999986
 33.0477208800000000 18.0447486099999992  3.0898162600000001
 25.5418772400000016  7.3308385700000001  9.4037843799999994
 24.4041062500000017 29.8136926799999991 18.7328572400000013
 18.1315584399999992 27.1027439299999990 25.8172432200000017
 15.4068331999999995 12.6455606500000002 13.9378600299999995
 33.6135743000000033  8.3432486000000008 14.9792095900000000
  0.5755829600000000 13.8228158299999997 25.0656124100000000
 17.7477551799999986 16.5213884499999999 19.9756626399999995
 10.9619717800000007 32.8597735700000015  9.2143464000000002
 25.5198916300000000 22.8186752099999985 18.4742178499999987
 11.1793737199999992 11.7340932400000000 24.9051608100000017
 16.0376524300000014  9.8243933999999999 23.5798488000000006
  1.5187289100000001 10.2767633600000003 31.5617939599999993
 34.0710146300000005 31.5428893600000002 31.3415147599999990
  6.8386158600000000 31.6167397299999990 12.5446293499999992
 32.5855104800000035 19.6747160399999999 27.9524430499999994
 26.7102742500000012  9.5792903200000001 34.1324312100000000
 13.7713008600000002 34.2535949800000026 20.1707465900000003
 34.7380179100000035  6.8670453199999999 19.4306313499999987
 20.6210993699999996  8.8170705999999992 33.5056294199999982
 14.1136471300000004 13.0673436200000008 32.8442707999999968
 28.6594088599999992  8.6846745100000007 13.3245307200000003
 15.3877316099999994  6.6051544000000000 27.8300015000000016
 33.8352712699999998 24.4042025400000000 31.4320293100000008
 23.1166894800000016 22.2000819299999996 16.7770230600000012
 11.4265953099999997  1.7873821200000000 10.5313014799999998
  4.5840140600000003  8.5243731900000004 14.1402712400000006
  5.5387929400000004 25.4929991700000009 25.8370849400000004
 33.8866272799999990 12.5446496900000000 32.9273662900000019
 25.2453021299999989 27.7929165299999994  5.5480366600000002
  5.8522204799999997  8.2696900200000005  3.6801371100000000
  7.0644277799999999 11.8377535399999996 17.1237126099999983
 28.2377900699999991 27.5377632800000001 22.1874175600000001
 13.9268584400000002 23.7098481600000000 16.4180920099999987
 33.8724401200000003 19.1010445100000013 11.2550338300000003
 23.3536093200000003 14.1118950299999995 18.6198075199999984
  8.1049143899999994 34.2960912100000002 34.4050486800000002
 10.6532075000000006 23.4584575999999991 26.2969626900000009
 28.0519891799999996 19.7821883999999990 14.2404711000000006
  9.5977555799999994 29.4780647299999998 12.8339728100000006
 30.5810918799999989  1.4112686000000001 24.1914382699999990
 25.5030255299999986 19.3500850699999987 31.8797645699999990
 23.2031727200000013  5.7238681299999996 21.0516080099999989
 34.3757886200000016  8.8793819000000003 30.7715876799999997
 18.0741766800000008  7.6875132800000001 19.0357760399999982
 34.2879523800000001  2.6156102400000001  0.5612854800000000
 18.5250263699999991 25.1182020100000010 26.6211545399999991
 16.7443623099999996 22.4973819900000009  8.4990367700000000
  8.3109243100000008 31.7048611099999995 23.6006825700000000
  1.6719374499999999 30.2527794199999995 13.4637843499999992
 10.8235441600000009 16.3066487299999991 15.8452830000000002
 31.6713059699999988 19.6394009400000016 29.4115944599999999
 15.6680888599999992 28.5694966900000011  2.5307921699999998
 10.0239305099999996 17.2001293900000007 17.5747257499999989
 13.4156517999999991  6.8598468500000003  3.4459977799999999
 26.8846872999999995  0.9394396800000000  4.1627789100000001
 33.8250597500000012 27.7791640700000002 19.4105037100000004
 32.3358754300000015 24.0583727200000013 29.0702688000000009
 19.0076676400000011 16.8700684400000007  0.2402423500000000
 12.7531925600000005  2.9073195900000002  3.3203402999999998
 14.9594868600000002 19.0957001499999990 26.4324199499999999
 29.6821132600000013 12.2774884100000001 22.7477326399999988
 16.1425139100000017 22.2313386299999998 17.1083243200000013
 14.6068871500000004  7.9523832700000003 25.7056814899999999
 30.3888042600000006 24.6332742499999995 31.4403671699999983
 23.2510007499999993  4.5695895200000001 11.0910806199999996
 32.7919880999999975 24.9439781600000003  3.4409763999999998
 12.4904039999999998 31.2201107799999988 31.4018201499999989
  5.3912363200000000 30.5087964900000017 11.3425923599999994
 24.9497343600000008 30.1853486500000017  0.1548007100000000
 11.7355465199999998 14.3303200999999998 14.6899126700000000
  3.3623254299999998 20.6035660500000013 29.1346238000000000
 15.6221909700000001 27.1636454200000017 34.3885946300000001
 14.1099367299999994 20.7065985700000006 10.8022124099999992
  7.7839991700000004 30.6740045099999996 22.9938134299999994
 22.0222937999999999  3.6918188900000000 28.4000532300000010
 24.6946729699999992 13.3685591400000003 20.3735277900000007
 12.8815608600000004 25.3932982199999984 30.1631769299999988
 12.5147114800000008 19.7558817500000004 27.1044924899999984
 20.2053380500000017 21.1166886699999985  8.1864562200000002
  4.7697339000000003 14.9177293700000000 17.2775024399999992
 22.9835411500000006 24.3760706700000007 13.6196963600000007
  6.2367991800000002 31.8837503799999986 20.1926673399999999
 18.1599680300000017 14.5827235099999992 21.8339821100000009
 23.7373218699999988 23.1685955200000002 19.5848799299999996
 23.0769589900000014 19.4496782900000014 25.7430420499999997
 28.3078015900000004 14.2213462499999999  3.1664613199999998
 18.7153773900000004  4.3478527500000004 29.3612068999999991
  8.8044157799999994 30.8159836300000016 29.2369348000000002
 20.1632117300000004 13.0996151899999997 15.2324786200000002
 22.2682467399999986  7.4229473500000003 17.4761766700000010
  2.1012464500000001  0.6491266900000000 24.8723445199999986
 24.4943926400000009  7.2571192900000003 30.4038318700000012
 32.2022628599999976 18.4319408799999991  0.6304306500000000
 25.6479623900000000  5.3039169399999997 32.9319425199999998
 32.1579285999999982  8.3059810299999999 18.6232164699999991
 30.3991810300000012 24.0356172500000014 31.6190822000000011
 16.9144755400000015 11.5903637499999999 24.2435391500000001
 26.1625720800000003  9.3490248000000005 14.0597870100000009
 17.8402827200000011 31.6316824200000006 18.6864795299999997
  8.6614162900000000  7.4236436799999996 29.1792596800000013
 30.8173684500000000 17.5116178100000006  2.7606149300000000
 22.6551845500000013  0.6868031300000000 28.1002420400000013
 25.7679847399999993 27.5194445999999999 29.3054468099999994
 16.6445160799999989 24.3817250299999984  3.6525981800000000
 34.2176847300000020 11.6273285099999999 15.5103182700000009
  1.9191670999999999 20.4413862199999983 33.3782820200000003
  8.7859265400000002  0.0674094900000000 12.9512403000000003
  6.4957016200000002  8.2570511000000000  1.2578400999999999
  0.5185584200000000  0.4114278300000000 19.8675634999999993
 14.1396898400000008 30.7671404700000011 13.3299240799999996
  1.0340317200000000 18.9711636000000006 33.3465425400000015
  0.3404804300000000 17.4545044500000017 22.8563469999999995
 21.6240473299999998 30.3635290799999993 19.8333296700000012
 33.7717098099999973  6.1267124600000002  1.6562939200000000
 12.3319695899999999 28.4129004899999984 30.6185267199999984
  0.5785327000000000 28.3990301699999996  7.4999831800000001
 17.2172528400000004 25.3685588600000003 34.3687224000000029
 30.1173589399999990 12.4516303900000000  9.5519959300000004
 30.3956277099999994 34.3149413399999972  1.2190981400000001
 14.3824018999999996 15.0286954900000005 27.2850181099999993
  9.2994583300000002 20.9960769200000001 11.0647799300000003
 10.7562652799999992  5.5506267500000002 14.3837776599999998
  3.1510773500000000  5.1570640499999998 14.7754577800000000
  6.1188342000000002  9.2463351899999999  3.1555367200000002
 10.1056631499999998 25.8805877600000009 30.0384091600000005
 15.5426895500000004 20.9832353699999992  5.2367992000000001
 24.8841964800000000 13.6903212599999993  3.2294714000000000
 27.7257810300000003 32.2017146399999987  9.2179954899999998
 16.8501386400000008 15.2801687899999994 18.7968541199999990
  8.7271733600000001 27.6026604700000000 27.9145347999999984
 19.5863709800000017 13.1370716200000004 14.7626905900000001
  1.5407637700000001 30.6167218000000005  5.2432123900000001
 27.6706757299999992 16.0469423400000011 25.9599122800000011
 33.2456597899999977 19.8041472700000014 33.3031269399999985
  5.6544601099999996  9.5111169899999997  8.3432452300000008
 14.9225075399999998 27.5843078599999991 34.4622565199999968
 27.1454066199999993  7.8491201300000002  5.1620834999999996
 29.1374181599999993 27.5870980699999997 11.3573132799999996
 27.3643153099999985 12.0473402200000006  4.6470595799999996
 18.1302852600000008  5.7044329500000002  9.4045473499999996
  2.2272600900000001 18.5603647900000013 24.0510343000000013
 10.7334590799999994  7.2467180899999999 30.5908784099999984
 25.8934928999999983  1.9352371300000000 10.5304850600000002
 25.8623930299999998  4.2396222500000000 30.3311061899999999
 34.9017474999999990 28.6701701000000000 14.5488592899999993
 12.6780261500000009 34.5854767300000034 33.1073512199999982
  5.2520293999999996  0.8580470400000000  1.1966266600000000
 21.7043222500000006 14.5440471900000006  1.8011871200000000
 32.5519619399999982 15.8243731899999993 30.2402469799999984
 12.8310258000000008 16.0506226699999992 17.8152695299999984
 31.2350488400000010  2.4658762099999998  3.9815279800000001
 32.5408215100000007  3.5870976699999999 18.3504886899999988
 31.6633640400000012 26.1594992600000005 27.7041445400000015
 18.5572542399999989  6.7720224699999996 32.3816420100000002
 23.2572269799999987  4.2138989000000002 17.9988290400000004
  1.3196475100000000 24.3156416399999991 12.9890965999999999
 12.7466125199999993 32.3166913700000009 16.6319164700000002
 22.6201301100000016  6.5268038700000002  5.9926587299999996
 23.6153163799999994  2.6224003699999998  9.6830541100000005
 28.0903935800000006  0.2448533200000000 20.2498226999999993
 33.7701353400000031 14.6646622999999998 33.9792915399999984
 29.9528830799999994 13.1058488400000002 15.0014229399999994
 23.9152713400000003  3.9653627199999999  5.8511910299999998
 25.9676224399999995 22.8303774900000001  5.1544383399999996
  5.6451050900000004 27.2812760300000008 16.4062071100000004
  9.1229132699999997 28.8032480900000003 11.1906192099999995
 25.7370759400000004 33.0353020800000010 19.3220546099999986
 15.7717800599999993 21.3074063500000008 28.5785509900000001
 14.7064812499999995  1.8304525899999999 34.4167299499999970
 31.9803413399999990 33.5968768999999980  7.7100346499999999
 12.5523337599999998 22.0735333900000015 24.8756346000000015
  9.7906654799999995 16.7147102499999995 14.1351622199999998
 24.6713521600000014  6.4158080799999997 30.4863294099999997
 18.7384719000000004  7.4971840199999997  5.1718124000000003
 17.6510509999999989  1.2142363400000000  2.6700979500000002
  6.3362964200000000 24.1338957600000015  3.3860930800000002
  0.0664619300000000 32.0256354200000004 24.8544316700000003
  3.4331027000000001 20.1571436900000016 16.1140017100000001
 33.0267403200000018 15.4245902099999999 31.0875995899999999
  9.2862777500000000  9.4702254499999992 21.0791203200000012
  6.7752155399999996 16.0475256000000002  0.7627919600000000
 10.2445095800000008 14.4724360500000007 23.2326170000000012
 10.5938445399999992  5.7451563099999996 28.8420616000000010
 33.5292973700000019 26.9009564800000014 29.3756027300000007
  5.7550561599999996 20.2288719899999982 31.6515298099999995
  2.2615987799999999  0.6907649200000000 24.6859742699999991
  7.1695943299999998 29.3719880599999996 15.0033343699999993
 21.0406779499999992 25.6743102000000007 28.1315509199999987
 26.9763872000000013  2.1396536500000001 16.1589063599999996
 17.7391807499999992 12.4108120100000008 23.5175110300000014
  3.8079198200000000 19.7083557499999991 33.3351107299999967
 18.2060108599999992 18.4245713400000000 16.7704281500000008
  5.5858754599999996 11.8089381699999993 22.8238739899999992
  0.8501521700000000  8.5075404700000004 11.2326752499999998
 32.5729937699999965 19.3062931099999986 30.8683161000000013
 33.7886521799999997 10.8772618800000007  9.1404450500000003
  8.4599461399999996 16.3147346700000000 11.7455676300000000
  7.7551170500000000  0.2521776000000000  3.3488673200000001
  4.4130811100000003  5.6541640400000004  4.5350331500000003
 25.3021659200000002  3.5026027200000001 33.2439296100000021
 25.7250374899999983  5.7051473599999998 21.4116847999999997
 31.1864514600000007 25.6896231899999989  5.4969299400000002
 21.9014244500000004  2.2407907800000002  0.9706285200000000
  3.3534651100000001 11.6881076000000004 22.0245085200000013
  5.9146571999999997  7.6434851799999999 14.0554583199999996
 15.0879976199999994  8.9760390599999997 10.2884721599999995
 18.3515836099999987 15.0657800099999992 20.5645828799999997
  3.9444080000000001  3.6652004599999999  1.0242030099999999
 28.7800267699999992  5.9098936699999998 32.5829364699999999
 11.4132468700000000 22.4401245299999985 26.1730162600000007
  9.8843130099999996 15.6487136400000004 17.9301984599999997
  2.8455538900000001 15.2242258499999998 23.5638131299999998
 12.0073335199999995 32.2544841400000024 21.1149560799999989
 14.0668058600000005 30.8060117399999989  1.6393850900000000
  8.1451535400000008 10.5956293200000005  0.7419078800000000
  9.2457009600000006 27.4961000499999990 21.9535900400000017
  3.9878113399999999 33.1452307400000024 11.8930065500000008
  0.7610483700000000 15.9399612299999998 12.9284689999999998
  8.7785358599999999 15.8521289500000009  6.7312606099999996
 12.2971218100000002  2.7262439100000000  4.9813213500000000
  1.0678544999999999 27.4305335600000006  4.9775539999999996
  7.7500227500000003 19.6323631399999989 16.1272930800000012
 11.4147198299999992 12.1961827199999995 21.2429592000000014
 30.4152674500000018 14.4000086199999995 30.9448911399999993
 25.7853794500000006  4.8724508599999998 26.2816223300000011
 15.2264196599999995 25.4352083299999983 34.5463888999999966
  6.1582763299999996  7.1502205300000004 18.7565211299999994
 30.8506609900000015 17.0591793699999990 28.6276456500000016
 34.8403966199999999 12.5459419099999998 19.6456192499999993
 28.9227772999999999 25.1180609600000011 24.2506255599999996
  5.2637116300000004 22.2013423299999992  2.9605784700000002
 23.4423845399999990  1.1569141999999999 19.2568773600000007
  5.3378452100000002  8.1644155699999992 19.3325328300000017
 16.8792932499999999 15.2817130700000003  9.7515990200000005
 25.1247483100000011 31.6447623000000000 28.5200351699999999
 11.2311457099999998  6.8658751899999997 34.7643350199999972
 29.1786085200000009 19.8733258699999986  5.9878788800000002
 13.2802968999999997  6.9499587399999996 12.9565316399999997
 25.4272442199999986  5.6936781300000003  3.6482882100000000
 31.7798631500000006 24.1600127399999991 22.3341567000000012
 30.1716350999999996 14.6711217800000000  2.5437118800000000
 17.1656455799999996 33.0053158999999994  5.3444148900000004
 13.5811027299999996 22.5936151800000005 15.8903642200000004
 19.3514273500000016 19.4395087500000017 29.8236290400000001
 10.7332549799999999  3.8163813100000001 21.9206463199999995
 10.3027482100000007 13.2891644299999996 15.9864911200000002
 24.9562294899999983 34.3491123599999995 15.5313792199999998
  5.8905872800000001 23.1004147499999988 28.6707850899999990
 24.8850669000000018 28.3194489500000017 34.9784464900000032
 22.7500812000000003 20.6148072700000000  8.0658386899999996
  7.5508149700000002 31.5472430700000004 34.5142715499999966
 26.3619272100000011 34.9106820299999967  3.8327996199999999
 17.8632041199999989 31.8716783100000001 27.2974096300000006
  7.5636053499999996  1.5151058100000001 19.3834234099999989
 32.1973234700000006  5.4154898999999999 18.1387043500000011
  7.2039760700000004 12.2258186299999991 29.3337213500000011
  1.8547703099999999 23.1245245200000014 13.8835970700000004
 31.6159604799999983 34.4478265099999987 29.6200759500000004
 19.6164484299999984 28.6486797099999997  3.3598439800000000
 13.8977051700000001 23.7307655599999983 17.9767990799999993
 16.0621398699999993  1.3848212900000001 34.6915048299999995
 30.1216993600000009 15.4011399999999998 21.9599004999999998
  5.0477543899999997 32.6080984900000033 14.3113445899999991
 10.7685741600000000  2.4259845499999999 33.5223005499999971
 14.3052973300000001 14.1322124099999993 10.0940421300000001
  5.5661469700000001 30.2320866499999994 15.6802830199999992
 23.5167110199999989 25.3621391699999990 31.4729479099999985
 10.8355264400000006  7.6928650599999999  3.9830248500000001
 22.6987246300000010 32.4647728200000003 20.4367112300000002
 24.8056826299999997 24.1079968700000009 23.1033921199999988
  8.7112987900000007  5.7987192600000004 19.0746858300000000
 23.2446932500000010  3.5595004399999999  9.5239233399999996
 13.5795524400000005 31.5377927199999988 15.6822554000000007
 21.6665893700000005 10.3675545899999992 17.4899831399999997
 24.1465599799999993  6.2335184699999999 11.7449832300000008
 32.9330627599999985 15.9857468600000008 12.4475391700000007
 10.7907678400000009 25.4350479599999986 31.8509873299999988
 29.5440398199999983  1.6772565600000000 14.6510867000000005
 15.8140962300000005 32.5154079699999983 31.4618213799999999
 33.8319071700000009  2.8637717800000000  6.4122572299999998
  5.8072897899999996 23.1195207600000003 34.7854244600000015
 33.6288459700000004 20.0142330000000008 29.2139938400000005
 19.5945083300000000  9.9015830800000000 25.9067573799999984
 14.8712438200000001  5.9948123000000004 24.8103958800000015
 33.3234933600000005 32.9529288100000031 34.8745078700000022
 25.8537476300000009 33.9363853999999989  8.8294194499999996
 31.0526462300000006 16.8251484699999985 15.2703143800000003
 28.1737408400000007  1.0623079300000000  4.2093579600000002
 11.6792456999999992 13.0824795500000004  7.2337511699999997
 22.6558825500000012 12.4181001999999996  6.0100902999999999
  1.5876623700000001 13.8414406000000003 23.0921295899999990
 29.4220666400000006 16.6739766500000002 29.5256243699999992
  7.1687314899999999 14.8702345400000002 24.0318613100000000
  3.4929964999999998 11.7921146199999995 20.0704966099999993
 29.8364683600000014 16.5237082599999994 23.9647559600000015
 30.6534318799999994 27.2296718999999996 24.0955573600000008
 24.0325420799999989 14.9347570399999992 23.4614905299999990
  7.2712796400000004 23.3968338500000002  5.5864429800000002
 21.3472083099999992 32.5301066500000005 33.5024975299999994
 31.4760701900000015 28.3117627700000014 10.7969433400000003
 24.2266352699999992 22.0590286099999986 26.0938194699999997
  8.8237963300000004  6.5448546500000004 29.3721583799999983
 17.8658289199999984  5.9866913100000003 28.3209030300000002
 24.4173019300000007  6.5934707000000001  6.4620531500000000
  2.7272868099999998 22.5093753300000010  0.0712467500000000
  7.4442013899999999 24.6927617300000009 16.2464396099999995
 18.9104513300000008 27.9554362800000007  7.0175888700000000
 29.6161404799999985 23.4731017199999989 27.4205448999999994
 12.0981375900000003 18.3985245800000001 34.0026984100000007
  3.3522211099999999 25.7801186599999994 21.4542398100000007
 11.4085196100000008 12.9890543300000001 12.0360564599999993
 25.0009058599999996 15.2247143800000000 31.7746527800000003
  6.5893192200000001  6.6881320100000003 22.4346102700000003
  3.4947558999999999  6.3623681999999997  7.3223711099999997
  7.0912380199999996  7.4374026500000001 15.4263618000000005
 25.8627475099999984 10.1974458499999994 28.4723301800000002
 14.4532684699999994 16.0830968299999988  3.6083392999999999
 25.3586184099999983  7.2995700000000001  8.8730672300000002
 29.6409725199999983 20.8250819999999983  7.1531158200000000
 32.4175589800000026 31.9137752299999988 34.8203261499999996
 25.2216395899999988 15.0965495900000004 12.7088757799999996
 28.0752790400000016 26.2147598399999993 11.4685805399999996
  7.4331048500000003 13.1931606400000003 12.4509027400000001
 32.3224330600000016  8.1324973200000006  7.8824261599999996
  4.9364532399999996 16.9695492700000017 27.2145473500000001
 14.8972751999999993 23.5042327200000010 25.6393525699999998
  0.5986538300000001 16.5749588500000016 10.3334696400000006
  4.6242890100000000 20.4254460400000006 10.4715271199999993
 14.9563503200000003  1.3797812599999999 19.9835797900000003
  4.0255106100000004  1.7568942700000001 23.1220402400000005
  7.1303475199999999 34.7507950399999999 11.6122087199999999
  6.3920215999999996 15.7070525599999993 18.4323745899999984
  7.9197935800000003  2.9707721100000000 19.7669295600000012
  2.7850640400000000 13.5713457300000009 33.6077392199999991
 15.2730893999999999  4.8135014299999996 15.5185673800000004
  0.5619680400000000 29.9969184300000009 18.2080622599999984
 17.9024280199999986 26.1077356999999992 32.7139807399999967
  8.8743564799999994 16.3093715000000010 26.6068466900000011
 21.2723578800000013 34.5188075200000029 32.5979640600000025
 18.9819615599999985  4.8278756600000001 12.1062598900000005
 14.9099312600000005 26.2146966500000005 10.4065813600000006
  8.4129427600000000 31.3289653900000005  5.9212513900000001
 13.4721524200000005 11.4657085300000006 29.1632289299999989
  6.3886977900000002 29.8437592699999996 34.0620326599999999
 20.5828702099999994 31.2996249599999992  2.7967118499999999
 34.3361158100000026  7.0983914900000000 22.6657350300000004
  3.0086166500000000 25.8200681100000011 27.8847979399999986
  9.7989302400000007 15.6204771999999998 33.3603760299999976
 22.8399581599999983 26.1767421800000015  2.5058326800000001
 10.5298729699999996 15.5749436899999996  3.0786195799999998
 12.3592937099999993 32.6493394000000023  7.4472813000000002
  6.4567984599999999 19.4117968599999990 19.0697420000000015
 10.1537352300000006 28.8280310200000010  7.7172697200000000
 29.1521982199999989 30.9954713899999987  0.8876432700000000
  8.6203865000000004 17.8358306099999986 26.8049790200000011
 26.2823998799999998 28.2947345199999987  4.6030940300000003
 14.2012837199999993 15.9755594599999995 16.2279066299999997
 22.4266680500000000 10.0099236099999995 26.7861117499999999
 24.1801835099999991 11.3441806900000000 16.6448929200000002
 30.7153708799999983 18.2384087999999984  2.9367775100000002
  8.4195902000000000  3.0525388200000001 29.0198868300000008
 12.2379501200000007 23.2277020500000013 32.9882779400000032
 33.9873075200000017 24.6774905199999992  4.5831250499999996
 28.5826994499999998 14.4297266600000000  5.4159509100000003
 25.8868881799999997 30.9296156899999986 14.0508449399999993
  7.5508268899999997 31.7474807299999995  4.9085811899999996
  3.5240955700000001  9.4743072900000005 19.6825688099999994
 19.9339863299999998 10.5081841600000008  1.0511907000000000
 27.3621486800000007 10.6328484599999999 31.2840759900000016
 21.4652028199999982 20.6638701800000000 27.6661521899999983
 10.0199086800000003 19.6052651100000013 15.6907129699999999
 23.8128645200000015 32.8139490800000004  9.0422439800000003
  2.9946169899999999  0.5276722500000000 13.5874834399999997
 24.8341660399999995 12.8285733700000009  9.8326185200000005
 21.8194352000000009 24.2474159799999995 21.3203441100000006
  1.0234987400000000 16.9432693699999994  5.5283501800000003
 24.9815422600000012  4.7807232099999997 24.6149176199999999
  2.9204299300000001 13.6658578899999998 12.0736276599999997
 26.4600830500000015  4.6158750599999996 19.0121886300000007
 22.8543701199999987 23.3985662599999991 34.7030802000000023
 14.6688820399999997 34.9004018899999977  6.0545456399999997
 13.7485956199999997  2.6466388300000001 32.0587614900000020
 21.6044184000000001 15.4600726999999996 32.4419105300000012
 21.1902337900000006 19.2592683700000009 10.5234338600000008
 12.3529269999999993 30.6440883399999997 10.1926726700000003
 18.2496190899999995 16.3480866899999988 12.2929478499999991
  2.5745830500000002 11.0173000699999992 17.7623593200000016
 16.9730377200000007 15.8450100200000001 27.0833709099999993
 15.2149245900000007  7.2376439000000001 18.0810033600000004
 17.4234171099999990 25.3713788399999984 11.7642363400000001
  6.5201304300000000 33.8321782399999975  7.4196578500000001
 32.1894911300000004 13.7774459599999997 32.5343160400000002
 34.2496668300000024 24.1503912800000009  0.6262237700000000
 24.9429772300000003 21.6182739400000017  3.3301681500000000
  5.1361057700000003 12.5297520099999993 27.5420912300000005
 24.9273761200000017  4.4104854800000002 32.0294730700000017
 19.3539669100000005 27.1219048600000008 32.8550028399999974
 34.0327237500000024 17.9880976100000005 30.9564677599999989
 10.3536541900000003 28.8660518000000010 16.7326107800000017
 34.9893664200000032 31.2814534900000005 12.3888129599999992
  3.7793612599999999 29.7247206499999983 28.3799448400000003
  1.7329520000000000  5.7243341599999997 28.8841600999999990
  6.0787844199999999  1.1297814700000000 18.2371153499999998
 16.1977064099999986  4.8515985700000002 25.8172373399999984
 15.3079470200000003 30.6656074600000004 21.8646141000000007
 13.5691574500000005 31.8292038999999995 13.4298903299999992
  1.1668570899999999 11.3671182000000002 17.1555246600000011
  2.9030149700000001  0.9726393600000000  2.1498015599999998
 11.7148236499999996 16.0411570499999989 33.7265876100000028
 17.7579488400000010 12.8462073900000000 26.2076350699999985
 31.7226264299999983  7.1824222000000004 34.9698735300000010
 18.6644317599999994 23.1045109000000011 27.5147379100000009
 20.2000673299999995  2.5316585599999999 24.5853992300000002
 31.8049259800000002 25.3910155499999988 26.7983539600000000
 19.9349226199999983 26.2445082999999997 21.4510544000000003
 27.8713797899999989 29.2801043000000014 10.7129958900000002
 13.3219689900000002  7.3328003300000004  7.3750649800000003
 17.7171962399999998 27.9172754099999985 30.6478802799999990
  3.9238541100000002  8.2160702899999993 12.4934393400000001
 12.2349683099999993  8.1124073899999996 20.2310598699999993
 33.4232170699999998 29.0092332199999987  8.1827523400000004
 12.5185580200000004 14.4047049800000000  4.8766034800000000
 26.0747180699999994  2.7866771500000000  5.6828671399999999
 31.9480906699999991 16.5598382700000002  1.2017507500000000
  2.8248678100000002 17.5533068400000012  3.4280624400000002
  5.4453837299999996 30.5642967699999986 34.1358867200000020
  1.8481653000000000 17.1142463800000009  9.1389730000000000
 18.7192276299999989 34.0588564899999966  2.2010446899999998
 32.9580806399999986 16.4612702499999983 24.5690469600000014
  1.9723038700000000  3.5111999100000002  2.7369024500000001
  9.1195177699999999  6.7352417800000000  9.2085483999999997
 33.0729070800000002 21.3493479499999985 33.4909820499999995
 12.9352803400000003 18.2566782100000005 29.9906792600000003
 18.3462580799999984 30.5595470999999996 24.3081725000000013
 27.4551511099999992 33.7247085999999996 21.1773749299999992
 13.1403814899999993  0.3917797800000000  4.6427955200000000
 16.4643784800000006  6.8091617400000004 26.5813138699999989
 12.1422397100000001 24.6227263100000009 29.1610116999999995
  4.1236753500000001  6.6116492300000003 31.9885606699999983
 31.7392206600000009  6.0817040400000000 15.1997862399999999
 32.8073490199999966  3.1149644900000002 28.2082361699999993
 20.8253812799999984 12.1831624699999992 12.4116875300000000
  3.2323765899999999  6.5533640100000001 32.3889605800000027
  6.2603985800000004  8.5189399100000003 27.8231338900000011
 23.4112730599999992  3.2662661900000001 16.1358179700000015
 14.6925705799999999 13.0336758899999996 26.9907296199999998
 33.1926486099999991  3.8451836300000002 16.0013466000000015
 29.6323180999999991 15.3703657699999994 29.7375395599999983
 33.8274466299999972 32.8954502200000007 13.8319011300000003
  2.7623028999999999 16.0248339599999987  4.3842875299999999
 11.7205603699999994  7.4581914100000004 14.8229952300000001
  0.0807837800000000 27.7329396400000014 12.5166066600000008
 16.6081871999999997  8.8023227199999994 30.6379799499999983
 12.5290999599999999 16.5829828900000003  5.1933950099999997
 30.3899222199999990  8.4227433099999995 21.0467633999999997
 22.9524733599999990 27.2198100200000006 33.3469873800000016
  7.8169327099999997 24.1881397400000004  5.0645866899999996
  0.5085724900000000  7.5777565600000001 29.3544370299999997
  0.0231333400000000  3.8020896000000000 26.7198255799999984
 30.1085329000000002  4.1125057800000002 28.8845995100000010
 13.4640203799999991 14.7904959399999996 13.8653248599999994
  4.5149439899999999  2.6636740099999998  3.3690280499999998
 28.2543685800000013 26.1727094999999998  4.7285357299999999
 22.5000185700000017 17.8120960400000001 12.8981466800000000
 24.1512358300000010 14.8206357799999999 30.4255099000000016
 11.5449528000000008 31.0216830899999998 21.4277469200000006
 21.1424237499999990 20.7159578800000013 28.1040950999999986
 20.5263771400000010 26.8205896000000017  8.6493375599999993
 14.4163514900000003 25.6194597199999983 16.2595635399999985
 29.4844206399999997 14.6576129799999997 20.5013266499999993
 25.7969464399999993 24.2788371599999984 24.4160755199999997