Na Cl 
 1.0000000000000000
    35.0000000000000000    0.0000000000000000    0.0000000000000000
     0.0000000000000000   35.0000000000000000    0.0000000000000000
     0.0000000000000000    0.0000000000000000   35.0000000000000000
 Na  Cl 
 3100 3100
Cartesian
 18.3290400200000008 21.1755914199999999 18.1649959099999982
 29.0863020500000005  8.4785224400000008 13.5266050799999995
 16.6515112599999995  1.9497179700000000  8.9099074100000006
 18.8138848000000003 14.9618371900000007 23.5975771899999991
 19.4797591899999993  6.3127218000000003 12.9153430000000000
 33.1697783400000006  4.4644839599999999 29.5818656799999999
  7.4164794499999998 13.7701381699999992 14.7122074900000008
 28.0713545099999990 30.2552154100000017 19.4054002700000012
 16.5623902100000002  9.0923282800000003  4.7614062199999996
 14.9543459999999993  2.6932879000000001 11.0897203300000005
  9.9295590899999997  6.0995654000000004  0.3957536600000000
  1.4317785700000001 18.9023461600000005 31.7319226000000008
 23.4231274800000016 27.5035571700000006  7.2853804200000001
 15.3886475300000001 21.9990748899999993 33.4516339400000007
 16.6116563399999997 32.1081867299999999 12.2943124299999997
 25.5090537899999994 15.6670526900000002 11.1545728600000000
 14.9061275200000001 32.2851950100000025 12.2725786100000001
 10.2287256899999992 29.1926019900000000 10.0616310200000001
 20.8326110699999987 28.6942759000000009 34.6951079899999968
 20.6800315700000006 19.2905890199999988 11.9296086799999994
 20.9330424300000004  1.6440397600000001 16.3761710500000000
 29.3067954800000017  4.3116380500000000 15.7006346800000003
 15.5670055499999993  9.6622680200000008 28.7386835100000013
 11.0537209999999995 34.8888783000000018 22.3776160900000001
 25.5936863099999989  3.0857951699999999 27.9593394900000014
  2.6188421100000001 19.8793795499999995  2.7321662600000001
 34.5183378099999985 24.7035053900000001 21.8150615399999985
 20.7393775299999987  1.7181887000000000  2.5975536099999998
 12.0834475000000001 16.5022058099999995 12.5730376899999996
 20.0443980000000010 11.1971158800000001 29.9265884000000000
 26.1712035800000002 14.4186053899999997 28.5008087400000001
  3.0924898600000001  0.4770154800000000  2.1991515000000001
  1.1391937800000000  1.4297953900000000 20.5711308399999986
  8.9959559000000002 30.0307770000000005 27.2689669700000010
 19.5278361599999997  9.3423419400000007  6.7409790699999999
  0.6351700500000000  0.3031051800000000 19.2887025700000017
 15.2241259099999997 21.8841177599999988 26.3672422299999987
 19.2402346400000006  5.6236426699999997 16.5623124600000011
  7.7854420099999997 19.9238531300000012 15.1996192699999995
 30.0010086600000001 16.9525810600000000 22.0298300900000008
 25.3543268300000015  5.1710073999999997  4.1214499399999998
  4.2091174799999997  7.6375129599999996 18.6802377100000001
  8.7552365999999999  9.2615039899999996 13.0975196199999999
 15.0122908200000005 31.5717338000000005 26.1300318800000007
 22.4457454200000015 15.6432804000000001 31.6136089499999997
 29.9256791699999987 10.8898654199999996 10.9680553900000000
 30.1069834400000005 13.0706533900000004 18.4714425300000009
 34.5346825100000032 19.4090272599999984  7.5211977399999999
 23.7703965900000007 19.0554511099999999 14.9668845600000004
  3.4287675399999999 17.2961111900000013 20.7407921000000002
 25.4927810500000014 22.1711744499999988 20.9289720800000012
  3.2337069299999999 28.9123226899999999 24.4074620799999984
 16.2152445199999988 19.6145787200000008 32.2245157799999973
  7.4367141200000004  3.8542139500000001 27.7738211499999998
 34.6119950499999973 23.8007668400000014  4.4883584599999997
 10.8406002499999996 22.9683583999999996 14.1996097399999996
 22.8409359300000006  7.6102001699999997 14.6341752399999994
 11.5831786000000001  8.4827006100000002 13.7492119699999993
 13.0055820499999992  9.8174588499999995 12.0308491400000008
  7.4814359200000000 20.4935130900000004 34.4744617200000008
 22.2780667799999996 32.4683571899999990 10.6792103100000002
  5.4876911399999999  6.6249278599999997 10.1626063799999997
  2.9253742800000002 26.7655814499999991 29.1274198099999992
 34.5446975300000005 12.7313770300000009 21.2538158700000004
  2.8832709400000001 19.1347392899999988 17.5632870700000012
 31.1658606899999988 29.6206054399999985 28.5156563799999994
  7.6368215399999997  7.0596055000000000  0.7897126799999999
  7.7010821900000002  2.0883890300000001 29.5543450400000012
 34.8770779199999978 34.0486535300000028  5.7198157600000004
 22.9434121600000012 14.9282515300000007 19.1235118399999990
  3.8635370600000001  9.4673210200000000  7.2644117100000001
 12.9676311000000002  1.9758775200000001 28.5734577099999996
 34.1036500200000035 20.0458786199999999  1.0819178400000000
 18.7931462899999993 16.4097081299999985 32.9645705100000015
 20.5365568500000002 22.9109305200000009 29.0091772200000015
  7.2415531700000004 13.7841559300000007  5.3086578099999997
  7.6117383700000003  5.4867468900000000 25.7549293299999995
 18.0973211899999988 11.6772400800000007 14.3740723599999995
 15.0340849100000007 12.8650288800000006 27.5404019499999997
 31.5355389600000002 12.8033716900000005  6.2680663200000000
 32.3906362399999992 34.4232361700000027  1.3303726300000001
 29.5728132200000005 30.2717436500000012 17.1955682000000003
 10.9146562199999995  7.6270106699999998 17.1684142800000004
  9.5387944000000005 18.5175113600000003  3.8134374100000001
  7.4424963899999996 31.0368628800000010 31.5543538699999999
 14.0254737100000000  1.1366545100000001 28.7523298999999994
 30.4085635699999983  6.7278400999999999 24.8086438099999995
  3.8765051000000001 17.4212175599999988 23.4035627800000015
 13.6796310299999995 33.5587688000000028 32.2272884899999994
 19.0375776600000002 29.5676663300000016 13.7679799200000001
 13.4385121200000004  6.0731796200000003 11.9298792599999999
 25.4807108100000015 29.3065961100000010  0.9607389200000001
 12.1389522400000001  4.3702811300000004 21.3150343400000004
 16.7821493000000004 27.5832987000000003 17.5012229899999987
  3.0547653399999999 31.4410453300000015 34.6489336200000011
 14.6273518199999994  1.9020593600000000 12.9116148099999997
  5.5101833800000000 34.6519853200000014 30.9172279699999990
 15.8505219499999992 14.7224602999999998 25.3902397399999984
 13.7593488500000003  8.3760535199999993  6.3315450999999996
 14.2785153200000003 19.0069978100000014  5.6121101800000002
 32.7358209900000006 25.9434012799999998  0.7453023200000000
 31.2961762099999987 14.8335254299999999  2.0618371799999999
  3.2974699599999999 15.5776914899999994 14.2609288900000006
  3.4318361899999998 33.8708671799999976 27.6647430999999990
 21.3373544399999986  6.9160328299999998  2.7637774099999999
  5.8069148200000003 16.8173760500000000 24.6392111100000015
 26.2211750300000013 14.2887523000000005 16.0599038800000002
 33.8045135699999975 32.4595994399999981  3.4878227499999999
 29.8369259100000015 24.2138204299999984 16.6800075499999991
 25.8869675000000008 32.2627985600000002 20.8553661800000008
 26.1394361999999987  5.5042032299999999  4.1436381700000000
 27.1266906299999988  8.2894563399999992 20.8927637399999995
 24.6802385599999994 15.7695431999999993 18.7125807100000010
 27.3440485899999999 21.4247319699999998  5.4702437899999996
 28.3874244800000000 22.4433038600000003  9.6079828299999992
 26.3674388200000003 22.5442929499999991 26.9316630699999990
 20.4611835299999996 16.1116361300000008 28.2684714300000017
 18.1993113999999991 10.8266359300000001 33.2701013599999982
 10.5934821299999999 34.6542061700000019 33.2430613000000008
 11.1312458700000008  7.8492857400000000  7.9454143300000002
 13.5787044600000009 17.2858568999999989 23.3969798800000000
  8.0407923799999992  6.5975700100000001  5.3591470100000000
 16.1838687300000004 17.2817226499999990 23.9125952599999998
 28.9885881999999988 11.2018451799999994  4.4118989700000002
 20.7859865100000007 15.0752971500000008  5.5191351600000003
 10.1046992099999997  9.6796903299999997  6.5554412800000001
 32.3015329400000013  6.8641485500000003  5.7446665200000000
 20.6101298799999988 34.4529726299999979 11.1109653000000002
 16.9938430099999991 15.5194012899999993 14.5775083799999994
  4.1833030899999999 28.7751023500000009 28.1451778499999996
 11.0041657900000001  7.0144489500000002 11.8435195400000008
  9.0329864600000001 22.4033829599999983  3.6573376700000000
  8.8741971300000007 13.6312270699999996 25.0334330399999985
  1.9091293499999999 26.7369139699999998  2.3131577999999999
 27.2431960199999992  6.3954301500000001  2.9944711300000000
 33.0763359999999977  8.9791701800000006 27.9131747200000007
 31.7275029699999997 19.1423524699999987  5.5178894500000002
 24.1679483600000005 15.7080502000000006  0.1997446200000000
 32.1078672699999998  6.9251491999999999 15.9825649900000002
 28.9698406199999994 11.1113187599999996 22.9344094600000012
  3.6198024200000001  8.0192939100000000 30.2726889300000011
 33.0828238699999986 13.0207642600000000 19.9848803199999985
 25.8834642600000002  8.3838878000000001 33.0021858599999973
 22.7377912500000008 24.0574739899999983 13.9653369900000008
  5.4188623900000001  4.8202054099999998 23.1923794299999990
 34.3211508799999976  0.5829104400000000 31.9758232599999985
 27.6616074199999993  3.6359534600000001 34.4697896699999973
 13.7550474400000002  6.0823153999999997 25.4749090500000008
  1.7963353600000000 21.0083945199999995  8.0866864899999999
  7.9398711600000000 25.4145048299999985  1.5826462900000000
 34.5361822500000031  9.6151408099999998  6.6716478500000003
 25.3854038499999994  2.4825823499999999  4.7615646199999997
 17.6166029000000002 17.2449916200000004  1.5741448000000000
 31.6516848300000007  4.8668797200000000  2.6473709599999999
  9.3636531699999992 14.9187596700000000 34.5938140100000027
 33.2320751900000033  1.4877465100000000 14.5555849100000003
 20.7156078500000014 22.2210524599999992 19.2287188600000007
 22.0779221999999997 28.6384213599999988  5.9478249500000002
  5.0938928299999997  3.0567781900000002 30.2710742999999987
  5.9458276300000001  6.5249124099999998  9.2028076999999993
  6.5890355300000003  1.9202295899999999  3.2986955700000000
  1.1764214600000000 32.1154991200000026 30.1936672399999999
 34.9653350800000027 12.3867586200000002  4.2521984499999999
 31.6993477900000009  0.9383097300000000 20.1717025800000016
 15.8052409500000000 23.6845917099999994 11.9328848700000005
  5.9959329300000004  8.6447882899999993  7.9567935399999996
 29.8289508199999993 30.1764856100000003 26.1935971400000014
  5.7870595399999996 33.1096780900000027  9.3597313399999997
 19.0046864500000012  1.7651828599999999 22.4282825099999990
  2.1441806200000002 22.2437377500000011 15.5003933499999995
 10.1110632500000008 11.6400180399999993 18.7831459599999988
 23.3341629099999999  2.2761014799999999 34.4375179099999968
 31.3635525400000006 27.2276065000000003 24.3824008799999987
 15.0116340000000008 20.5326399600000009 27.0798559400000016
 26.1387893300000016 29.6322023700000017 13.4252390899999998
 27.9933633999999998 14.4586948799999995  2.2849126300000000
  7.5265509000000002  8.7409288499999995 13.7911430900000003
 17.7418806599999996 22.7883357699999998 33.5592987500000035
  6.1341662799999996 21.9327518700000006  3.7606436099999998
 30.1371167200000016 29.5207214100000002 29.7647721700000005
  1.5258083200000001 24.2603899699999985 29.3742225200000000
 17.5578933299999989 10.5132603499999995 16.3666767899999996
  9.7368309800000006 21.9182561800000002  5.1316774699999996
  8.1032499999999992  6.3228082800000003  7.4388447900000001
  4.6644317400000004 30.1041821899999995  0.9901508100000000
 16.4646438000000011 11.2683530199999993  2.2091752599999999
 29.6086401600000002  2.4151416700000001 26.2860358500000011
 19.4044735800000012  0.9874066700000000  5.3439671500000001
  6.0558921600000000  1.3795597600000000 16.2609672500000002
 18.0765803200000015 13.0853922100000002 21.1867908500000013
 31.3938724200000010 11.8138180800000008 34.8405063000000013
 14.3894431899999997 28.3716163799999990  1.7564203400000000
 15.1566355300000009  7.5733979900000001 26.1000512100000002
  8.5606916500000008 29.5446367999999993 11.7107793499999993
 18.0685530599999993 18.1712300999999989 28.8642858099999984
 22.0516923399999989  7.7931675699999996  9.7674279899999998
 11.1622531699999996  3.9890184199999998 18.4325103400000003
 10.2012976200000001 23.2090826700000008  0.0524292400000000
  6.1782717099999998 28.2125599399999984 23.4949416500000012
  9.4843851600000004 14.0614393000000000 10.6103148399999991
  2.5615282300000000  1.6050378900000000 25.8717656500000004
 21.7652999700000009 24.3965361200000004  7.5825207499999996
  4.4262165800000002 16.4220707799999985 30.7436000299999996
  2.6857876900000002 25.0336777400000017  6.0218081300000001
 23.5292053299999999 25.3539180699999989 33.3010204699999974
  5.2510178700000001 18.8572946799999990  9.5517105499999992
 25.5992373099999995 26.3814777999999990 13.4973909100000000
 15.6490526100000000 23.6272474400000014 28.1476769400000002
 18.0064112799999982 23.7543441699999995 29.2624629600000006
 29.2149879500000011  1.3024370900000000 15.0601558099999995
 31.0387123900000006 27.6391272900000011 10.8124207400000003
  4.3553487400000002 15.3463034500000006 10.3221172200000009
 23.8240980100000002 11.6153245100000007 23.7589626900000006
  1.8859194200000000 21.6476605599999985  7.2310052599999999
 11.5053483100000005 30.3889775799999988 27.5461706299999989
 23.4897361700000005 26.9958685199999984 14.5621901099999995
 26.7291730600000008 12.2115475500000006 34.4796870300000009
  5.0999476200000000 34.8196923300000023 14.5690509899999991
  2.0400410999999998 21.9707562900000006 12.5009660500000006
 33.7364095699999993  7.8356815800000001 24.3003060700000013
  0.2440604200000000  6.9234724400000003 22.8013745599999993
  7.7022947100000003 22.4671588799999995 25.5393794999999990
  0.3513286800000000 24.7811637199999986 32.0186238100000011
 12.0103244300000007 12.5226277800000005 12.8051765799999995
  1.6028387799999999 23.9113455100000003  7.9839044599999998
 30.4822039599999997 19.4020056600000004 29.5091757399999999
 10.7166770600000003  5.1912963100000002 30.1171412099999998
  8.7922940500000006  2.0860827700000000 25.7931555900000014
 30.5660085499999994 27.9057375199999989 11.7304463999999999
 33.6127151600000005 28.9036755800000016 19.0754633300000016
  1.3121863499999999  3.9159183799999999 14.8402593300000003
 10.2385717199999995 19.6749188799999999 31.3616877599999988
 30.8861672899999995 18.8136916999999997 11.7163983799999993
  7.5075899799999997  5.0647513499999999  3.2760157900000002
  4.9973329199999998 25.1743917999999987 26.0030321300000011
 22.9610747300000000 31.7829071200000008  5.3200494300000001
 24.0707139999999988 26.4901853699999990 20.5454895300000011
 33.0426067499999974  2.0915699499999998 13.0161560600000001
 12.5348170700000008  7.6704879699999999 12.8912328600000006
 12.9506661300000001 31.8456709199999999 10.1912037499999997
 28.5614937900000001  8.0261448299999998  5.4161900699999999
 29.9064331699999997  2.4222281400000001  5.3882710800000000
 15.6720814500000003 25.6729432399999986  5.1570874399999997
 15.1685371700000005 32.6042436899999970 19.5236424399999997
  8.8584125799999995 28.3401621800000001 33.1057210800000021
 12.8542585299999992 21.5230942600000006 13.6452185099999994
 15.1874978299999999  1.2760384100000000 26.3776083800000016
 18.4639798900000009 14.1100322699999996 22.3123347500000015
 13.4102057400000003 20.3279539199999988 16.9215712399999987
 25.8479132800000002  5.8785527300000000 30.8357276099999993
 11.0740131099999992 25.9382584600000001 19.3100193199999985
 23.4947663800000015  6.5386180400000002 29.5533600900000017
 18.3230938499999993 26.2383735700000003 23.3445483200000012
  1.8236236200000000 24.6422029999999985  6.5057540500000002
  2.2083279099999999 15.3671134100000000 10.0751243699999993
  2.6153173800000000 30.6391644599999999 32.4369963099999978
  8.5969937200000004  9.6734358999999994  6.4372452400000002
  5.7807124500000002 31.4342302300000007 25.1075150700000016
 22.0057843800000015  6.2180319400000004 31.4628729199999988
 16.5051403100000016 26.8931340900000002  2.9046517800000000
 28.4824447099999993  9.4481916100000003  0.7564190300000000
  8.1346199600000002  8.5575999500000002 12.5822798799999997
  0.3778705500000000 15.8703979600000000 33.7785882100000023
 16.7320476499999984 25.5247815500000002  0.0034962000000000
 23.7605760600000018 29.0018236000000016 23.6491733599999989
 11.6567345600000003 19.7376715000000011  1.0449309600000001
 27.1546537699999995 23.2658652600000018  9.3974314299999993
 22.6300461300000002 33.1853458000000003 21.1068955000000003
 18.5927452899999999  8.2701429399999995 11.2924551700000002
 22.2940652300000011 21.3543865400000001 13.1745279499999999
 14.2912590200000000 23.1903453000000006  0.1333785800000000
  1.6937204100000001 11.3589851399999997 20.4633288600000007
 17.1681106300000010  4.4353363999999997 29.6989300199999988
 14.9169138599999993  3.5712210899999999 31.5128549599999985
 16.5533371199999984 31.9369094900000015  3.6377554299999999
 29.7555299300000016 21.1915139900000007  5.7756401300000002
 16.1836638800000010 13.8387854200000007 13.4665242599999999
 21.8732747699999983 19.1290600700000013 27.1126527999999993
 17.3555329900000004  4.4429551500000004 17.7472140399999994
  7.4263256000000002  4.2543725200000004 33.2390223199999966
 13.2482146699999994 27.7439135300000004 21.9546638300000012
 22.0349492699999985  6.3924215899999997 22.4296689600000008
 25.4462559299999995 10.2233994500000005  9.6745903999999996
 25.8408494900000001 27.1573442800000002 33.4853354899999971
 23.0335876000000006 25.5068108699999989 12.9703277200000002
 12.2980688499999999 18.6430832600000009 14.3002685700000001
 34.6138420300000007 19.8430822199999994 22.6828048100000004
  9.9004215700000007  6.3853662699999996  8.8509004299999994
  7.0836080099999998 19.1998378999999986 26.6755438100000006
 20.8648787899999988 11.0178379100000008 26.8018158100000008
  8.1183430800000007 14.9921452800000008  7.9857424999999997
 26.3741356499999995 30.0978528400000016 34.6127310899999969
  1.1714000200000001 17.7201201300000015  7.0590479899999998
 26.4196312199999994 24.7419167299999998  2.3944176300000000
 27.9771503499999987 21.9659223899999994  1.2576181500000001
 31.7882760399999995 25.5554651499999999 25.7028456799999994
 17.7273111700000001 22.9187727099999989 20.8129445199999985
 13.1586054099999998 26.6811626500000010 10.3006286399999993
 12.6654881499999998 33.8593104600000032  8.4309282499999991
 18.6111298000000005  2.2584883800000002 18.4142183899999985
 17.7685604700000006 16.1957797200000009  7.4698000999999996
 34.9303502799999990 19.3972320200000006 19.2785208899999994
 19.1006403099999993  4.4617453100000004 18.5535010500000013
 13.6922297400000001  0.3052979600000000 21.1428406200000012
 27.7223584299999999  9.6781745099999998 16.0789657999999989
  4.1781914300000000 12.8632860600000001 33.2487279799999982
  1.3712334200000000 16.3200455700000013 31.0058177499999985
 34.7788460900000018 28.0661578899999995 12.9157128399999994
  4.3856373299999998 34.4065830199999994  1.4408594200000000
 31.5242556900000004 33.1654356600000000  1.4771729899999999
 11.8464443799999994 23.1906465699999984  5.1968438299999997
 18.3542043399999990 24.1123122800000012 25.6324300299999983
 24.2515353699999991 20.5549110199999987 16.3895053900000001
  8.4171097400000008 31.3633872300000007 24.4492062799999985
 17.8099211199999985 11.3442281499999993 17.4425564800000004
 32.0467384299999978 29.5328469200000008 23.5582231499999999
 23.0564272499999987 24.3728093799999996 28.8071714099999987
  7.1298933399999997 27.1173849099999984 26.8882322299999998
 25.5190452900000011  8.5941316800000003 31.5712008200000014
 17.1722044099999991  3.2395703999999999 22.4596556300000003
  4.4321133300000000 10.5287543299999999 31.7739698699999984
 30.1116747800000013 21.9179974699999995  0.7834249700000000
  7.0235355400000001 24.5618499499999992 21.0120494399999984
 34.5149979099999982  3.5698501700000000  8.4718281999999991
  6.0165989299999998  5.9782342499999999 26.1831195000000001
  4.6894075700000002 29.8729844299999989  0.2493892800000000
 26.4855856199999984 13.2375922900000003 24.2135520699999987
 12.1695926900000000 29.3442827100000017  4.3595643400000004
 16.1978373799999993  7.0528431899999999 27.1355304900000007
 16.8608675999999988 20.6017122499999985 32.9778086500000001
 33.0299040900000023 33.5979603800000035 25.9201567200000014
 30.0739626999999992 18.0910305099999995 10.9498394599999997
  3.9518228099999999 23.2858869300000002 30.9016085099999991
 33.3342962799999967  4.5175345000000000 11.2023531700000003
 12.9498025899999991 17.3321387099999988 31.2553595400000006
 28.8278024299999984  3.8755007099999998  0.5404434400000000
 18.2329389000000006 16.0041353400000013  6.5027217999999998
 21.2452417999999987 33.7789947300000009 23.5645071399999999
 23.6715194699999998  2.2277990700000001 27.6189958900000008
 22.4639206099999988  6.1136337200000002 26.8419128799999989
 17.0298211299999984 25.2037083499999994 28.7262745899999992
 12.4970242999999996  2.4873286100000001 14.5320289599999999
  9.8106968299999995  3.3815975500000000 29.5100278600000010
 25.0381892999999991 11.8475084299999995  6.0742525100000000
 29.9619514299999992 25.5176594899999998 20.3030132899999991
 17.7444425199999998 30.8454584400000016 34.6199688499999993
 17.8164617599999993 16.2727846599999992  6.6917923400000001
 13.9538640899999997 22.5938331400000010 19.5535354800000007
 21.2708566999999995  9.2885887500000006 13.3111264699999996
  0.1025619300000000  8.7583380999999996 26.3884885900000015
 26.3278020099999992 21.3683982800000010  3.6699006999999999
 10.0211090100000000  4.7791406199999997 33.0164538499999978
 17.5397802100000000 21.0860055200000005 17.4947765799999999
 34.7100311800000014 26.4939960100000000 14.5908605700000003
 18.5935629499999990 22.0125821200000011 15.4677225800000002
 21.0133873300000005 22.0007829000000008 27.1582085400000004
 13.0109203099999995 29.5376255500000013 33.8726984099999981
 23.4421750099999997 32.6353610800000027 17.5137244599999988
  3.1670703300000000 28.9510553000000002 10.3863868499999992
 19.0038130699999996 22.0862012000000014 27.7835969499999997
 23.9139780600000016 17.2293047699999988 17.9252478400000008
 24.6403700100000016 10.6987384700000003 18.6974820800000003
 18.5813038800000001 25.9743327800000010 30.6110194799999995
 14.4044293299999993  0.2437450700000000  1.6233377899999999
 18.4381771900000011  0.4440244000000000  7.7180683500000002
  7.5746954200000003 12.9059594999999998 15.4613940299999992
 19.6493898300000005 22.2948457799999993 34.4731032199999987
 34.4457692900000012 30.0444287800000005 11.7144780199999996
 10.2320735999999997 15.4610272799999997 13.4855761899999997
 27.0790378700000005 12.3895020700000007 15.3613703400000006
 18.5512600799999987 11.0281016100000002 24.3036815600000011
 21.9759633000000001 30.0152314500000017 10.9949817500000009
 27.6583333899999992 18.6092207800000011  5.1736223600000004
 13.0710134900000003 24.5237695400000000 10.9946983300000003
 22.8948137400000000  3.1344674399999999  5.9942683499999996
 15.6682182900000004 30.7447186300000013 21.4859397399999992
 19.1891547899999999 22.1245455399999997  7.2368559000000001
  4.8371038999999998 27.2052544199999993 33.7110805800000009
  2.1312435000000001 14.8094730000000006 17.8126860499999999
 22.8144304499999997 17.1326358100000000  3.2100431600000001
 16.1954115300000012  1.2816073299999999 14.9743323099999994
 23.6030522400000002  6.4989610000000004 28.0375270699999994
 21.7175034899999986 26.0811294999999994  5.5435727200000002
  0.8266490399999999 33.4904136500000007  3.3822183600000000
  4.9440259600000003  4.2442749400000004  3.5289790200000000
 21.5503808700000015 17.2513607700000016  3.6204843000000002
 19.4796812000000017  5.0020006099999996 33.6242737199999979
 13.1684437200000009 17.0336400800000014 19.3887800800000001
 17.2267491499999998  9.9730376500000002  1.8437499700000000
 12.9057870200000000 12.5624677200000008 17.3949726600000005
  2.3054781300000000  3.1709881100000001 24.7971956300000009
 21.4670169199999989 16.1534090900000002 30.3466219899999992
 15.6758233699999998 18.5634552299999989  5.9920252400000003
 12.9682062400000007 11.6423435899999994 22.8686601500000002
 18.5711729400000003 30.7035692500000010 29.8883541699999995
 13.5685679100000005 21.9208638899999997 13.9593453200000006
  9.7168517300000001  1.1271004700000000  8.1776161100000007
 31.1939398799999985 11.5476194999999997  5.8409519300000001
 28.8791063900000005 26.1410380499999988 32.4264439000000024
  6.2425833700000002 24.0987222099999983  7.2242650900000003
  3.2234273600000001 31.1436560100000008  6.4266440600000001
  2.6067247199999999 26.2223421899999991 33.9051946599999994
  9.6066842599999998  4.5423559200000003  8.3760096300000004
  5.5938706700000003  6.1842938900000002 24.4273543099999983
  0.5439257400000000  6.7598587099999996  2.9452939300000001
 11.5550010299999997 24.9022877800000018  2.7507933000000002
 32.5829302799999994 11.3091561600000006 22.9875422299999990
 21.6222310700000016 34.8375584300000014 34.8444560599999988
 10.7730203000000007  7.1521582400000003 16.3234914999999994
 18.9216155099999987  5.5918175100000003  6.6768535299999998
  7.8772075700000004 22.2277025600000009 25.9969417299999996
 25.5996389899999990 33.1325821900000008  9.3088210900000004
  3.3560312699999999 19.8175459200000006 13.4943410600000000
 34.3901297499999998  4.9107369500000004  4.7558807400000003
 27.0876266699999988 16.7414046100000000  7.7872193400000000
 14.7954219299999998 26.6563372799999989 13.0606828299999993
 25.8963545000000011 15.0300762999999993 15.4923160899999992
 14.3565056099999993 34.7898221900000024  2.5414685800000001
 14.4623464700000000 28.6570698499999992  4.3728999899999996
 30.3300654700000010 17.4103991799999989 16.5790042299999989
  8.3241525500000009  9.0319371299999993  4.7674033299999996
 10.7478469200000006  4.0631362299999996  4.1307001100000003
 19.6768122699999992 28.1838617000000013 31.1635131700000017
 25.1658431500000006 22.3258017600000009 29.7502526100000004
  2.4955451000000002 12.6264362099999996  7.5134138400000001
 32.9464515800000015 31.0117854599999987 30.0781900399999991
 19.1400628700000013  2.0366492300000001 34.9635608700000020
 17.5675091099999996 32.1255941699999994 24.8612524899999983
 13.0706682000000001 18.7204384700000013 19.4094122899999988
 13.9923529000000002  4.4751448800000002 33.7600548599999968
 20.2419641400000003  6.6913494199999999  6.5097347100000000
 34.1112628799999982  7.9952764500000004 11.6113763900000002
 27.4030517899999992 33.0914586399999990 18.1454033599999995
 14.7942416300000001  6.8191130400000004 18.8328989299999989
 19.5323730299999987 15.5934445499999992 34.0225007700000006
 21.1704913200000000  2.4476648900000000 12.9038875399999995
 15.6378466100000004 10.2879799900000002 10.0796591499999995
  8.8313578499999998 28.6313952799999996 27.8604741500000017
 20.9889624200000000 31.4913972599999994  5.9138111899999997
 28.4246940399999986 18.8327155799999986 16.4507401299999998
 22.5893631799999994 14.4268864800000003 27.6810464600000010
 15.3479338500000004  2.7242708499999999  6.8202121599999996
  2.3057130899999998  7.1198609900000003 33.5035811500000023
 14.6883836500000005 12.6639723899999996  8.3839306800000006
 33.7228770800000035 25.3950124099999996 23.9735683199999983
  3.7627351700000000 30.2899194899999991  7.6768784400000003
 15.2958635500000000  2.5786036999999999  8.5924419099999998
  3.1711459799999999 27.4504130800000006 24.0925753399999998
  8.9136864300000003 12.3278453599999995 29.0969784699999998
 12.9172123100000000 29.5873681099999999 29.8958717699999994
 34.9168862599999983  3.1073130500000001  4.6104627799999998
 33.0478640099999978 20.4503397199999988  8.8597578200000005
 15.9497603300000002  2.6218878800000001  1.0695477600000001
 20.8892079099999997 34.9173785300000006 11.3808810499999993
  3.4678204400000001  8.6581692599999993 22.8508012799999989
 33.4171157299999990 31.4639952100000002  0.3674728600000000
 16.1163379400000011  2.2916740299999998 16.1653934100000001
 21.7670786800000009 19.2913883599999991 25.3641584900000012
 30.4117242800000014 24.8499866900000015 33.7263775400000014
 14.2273562699999996 34.1769091900000035 26.3127130600000001
 12.7683637799999996 12.8901170100000009 29.1965331299999988
  6.1323881599999996 27.0477608499999995 11.7166189299999992
 11.2143149900000001  3.9919717200000000 33.0687137999999976
 20.8728145000000005  4.3933749500000001 24.4528608399999996
  9.2322062299999992 10.6901103000000006 13.6837817600000005
 33.3200894900000009 10.7441261200000007 11.5276283599999996
 19.8498324799999999 31.1345579699999995 28.5157458400000010
  9.1403844700000008  7.4417746300000003 18.9061861799999988
 26.2711766599999983 14.6662044599999994 24.8984264599999996
  7.8535219700000001  9.1437346799999997 28.7488230599999994
  6.4691158399999997 16.4298685000000013 21.7998316800000005
  9.7710054300000007  1.2883350000000000 23.0464282900000015
 31.3202736799999997 34.8397995199999997  2.5105016600000001
 19.0013947999999999 16.4423394999999992 21.3999008000000011
  8.1327814299999996 12.6574505700000000  3.7717551500000002
  6.8887269000000000 33.8330364799999970 21.8441651099999987
 19.8829952200000015 28.5005973499999996 34.5397095300000032
 33.8980878899999993 30.1631410600000009 11.9118071299999997
  1.7423721400000001 24.0484971999999999  3.0924253300000002
 34.3925546199999985 10.6655374399999996 20.6877238199999987
  8.5742654199999997 12.6788788199999995 13.9163023500000005
 21.2935312400000001  5.3794741100000003  7.8213614099999997
 28.6212158999999993 31.7756116800000008 22.7055744600000011
  7.5899211199999996 23.8042073300000006 27.3126659600000004
 18.9768282799999994 23.5528375700000012  2.5410623000000001
  7.6339958200000000 29.5676707000000007 13.8413912600000000
 22.2629649000000001 23.6511018100000001  9.0681166999999991