Na Cl 
 1.0000000000000000
    35.0000000000000000    0.0000000000000000    0.0000000000000000
     0.0000000000000000   35.0000000000000000    0.0000000000000000
     0.0000000000000000    0.0000000000000000   35.0000000000000000
 1200 1200
Cartesian
 12.8491064099999992  4.9314012700000003  2.0611126500000001
 26.1202263700000010 32.6446748400000004 34.0499925800000014
 28.2253231999999983 28.0069966500000014 33.5927555700000013
  8.4428709099999999  9.3314394899999993 33.5035260800000003
 13.7627980900000004 31.3474576399999982  1.7205012799999999
  6.4650251499999998 17.6776798600000014 28.7653972300000014
  5.0311985600000000 34.3541790599999999 30.6874421700000006
  3.8405250999999998  7.7054093699999999  4.8151992899999998
  9.0544879999999992 33.7797615500000035  1.4523067999999999
 13.9203216500000000 18.8459374699999991 28.6709862099999988
 28.2652757900000005 34.4901479800000033  5.9171025200000003
 13.7420589399999997 32.7846455899999967  6.5384137899999999
 26.1205580099999999  3.2184585000000001 17.6319523800000013
 30.2236840600000001 14.4579498999999991 24.7638957700000013
 21.7961900499999999 18.5662151199999990 17.3775853600000012
 25.0771068100000001  0.9340887800000000 19.2300480100000009
  9.4168845000000001 34.5778741600000004 10.3310726699999993
 34.3384445700000001 11.2378684900000003 14.8557942999999995
 26.3347809599999998 33.6635639900000001  8.5199152599999994
  9.2157773600000006 14.5700504399999993 18.8378165700000011
 32.1831369100000018 11.9820198599999994 26.8078075300000016
  3.8211755100000002 32.4967179799999997 32.3390646499999974
  7.6596105000000003  5.0737037100000002 13.7383169899999995
  4.8935857599999997 31.4958308199999983 10.4285163799999996
 27.0748493600000018 11.9932280500000008  5.1837806500000001
  8.8014196899999995 15.4607325000000007  8.5311322599999997
 22.7399427799999998 25.2183131200000012 29.1886068600000002
 12.9154524899999998  0.0099925400000000 27.9446100599999987
  0.0612734000000000 14.8219986099999996 18.3306708900000004
 13.5856888199999997 29.6719650199999982 16.7160926600000010
  2.3693046400000002 25.9030127800000010 21.9358084700000013
 20.1329705600000004 29.8361774000000004 11.6336362199999996
 16.5239683500000005 28.3360179800000012 33.4542434900000032
 25.4702774900000009 28.9537405600000000 20.5176538999999991
 20.2090968599999989 14.2909848000000004 18.5815921000000017
 30.8183857699999990 34.6096128100000016 18.7625487200000016
 27.1563977700000017 17.5772616699999986 21.0369631000000012
 33.2387841899999970  9.2459268199999993 31.2921239299999989
 16.7269731200000003 10.2372356000000000 32.2187175700000026
 14.9861685700000002 12.5351930800000009 13.9901637500000007
  2.6820916399999999 32.9142587899999981 14.9474471300000005
 26.7439055199999984 14.8200659300000002 20.8480687899999992
  8.4920904799999999 31.5647001399999994 12.9153069100000000
 32.5633129799999992 31.6012807400000000 32.7254487900000015
 26.6177567000000010 29.6369110999999990 22.5648589299999998
 22.5840440499999993 30.0283052800000014 20.7269119900000014
  2.2098837599999999  6.5163435900000000  5.1867346699999999
 23.4496757600000016 18.7004431300000000 33.3476207300000027
 18.4615775400000004  8.7337932600000006 33.8633041599999984
  5.5530015700000002 19.2973608500000005 20.7437618599999993
  5.4056466700000003 27.7035021999999991  7.7614039600000000
  0.9163020200000001  0.2880997400000000 12.0922491399999998
 24.4312678100000014 31.3180243400000009 32.0351489199999975
  9.7478991500000003 32.9409574599999999  8.6720938299999997
 11.8809603100000007  8.2999584899999999 22.4023957899999999
 22.0661000799999982  4.9440456099999999  4.5746259900000004
 25.7390165400000015 30.6510307299999987 21.8734292600000018
 21.7255754699999990 21.7469361100000000 30.7552510199999993
 23.5039727300000010 21.2697340900000000 25.4207777399999983
  2.0114709199999998 31.7918141399999996 15.0202970499999999
 26.1325353400000004 29.5214022500000013  6.2076283999999999
 31.6104745600000001 12.2459181099999999 17.1456064800000014
 11.2080412900000006  3.5499987900000001 24.8295978300000009
  6.0507169799999998 19.4002658399999994  0.2679036000000000
 22.6557271500000006  9.8062451199999998 33.5617422199999993
 12.2015128300000004  5.8261644400000003 25.3458242200000008
  2.2676093000000002 31.7094304700000009 30.3979874899999984
  3.9756936700000001  4.4835366800000003 34.8010510000000011
 16.2642281199999985  2.8819832800000000 32.4929108299999996
  3.3523131199999998 27.3266874800000004  9.6365547800000009
 16.5762385700000010 31.8416237200000012 12.1698414800000005
 33.5257161500000009  1.7113245300000000 27.2313531299999987
 17.3520765899999994 16.3512988700000008 31.2801430399999987
 25.3640402499999986 28.4244134700000011 14.1171324400000007
  1.6449391700000000 31.4926076100000003 26.2561493000000006
  7.1013247000000002  1.9641915200000000  7.1668862200000003
 18.8566810700000005 34.2387863800000005 16.2827342399999999
 33.9143415699999977 23.3388033999999998 10.2688060399999994
  2.8230351200000001 21.7512218699999984 32.7860231399999975
 29.6909271799999992 20.4130882900000010 12.7749483999999995
 18.5577175600000004 14.5591033599999999  9.8500887000000006
  0.4407046000000000 21.9221600899999984  0.7447094000000000
 21.3308602299999990  2.7678827300000002  4.8050862399999996
 14.0844918400000001 13.0542945800000005 23.5289773300000000
 21.5220102900000008 30.4268787500000002 34.5511913500000034
 16.8729529800000009 13.7207649899999993 24.8972232799999986
 22.6317099400000004 26.1490414300000005 26.9393089199999984
  8.9650013699999995 34.7780067500000030 13.9594012299999992
 10.6564073599999993  7.2385670600000003 33.5965456200000006
  2.1422772900000000 25.2544708299999989  6.8912706200000002
  6.5852829399999999  8.8502980900000008 31.9599645800000012
  6.1247410699999998  3.5231248700000002 28.1597318500000000
 10.6132281499999994 16.5255248399999992 19.4959311600000014
 33.1149345999999980 27.7059006600000011 13.0724493099999997
 13.6555573900000002 13.9529700299999995  7.5672432900000004
 27.6579895399999991 12.8302688499999995  3.3285463900000001
 12.8791312900000001 19.5596079299999985 18.3304293700000009
  9.5264250100000005 20.6250777399999983  5.6816563699999998
 11.5986305600000001 23.1838203999999983 30.4694316100000009
 14.7371016699999995 26.4678028999999988 29.3633029699999994
  9.0330952000000000 24.2309967099999994 25.3616248599999992
 22.8290361200000014 17.6100338399999998 11.8387135299999997
 33.2583206799999971 22.5956923799999991 15.8018408899999994
  1.5398869799999999 15.8804902499999994 28.3996065699999996
 17.1875413100000003 16.0067943399999990 16.1924250900000004
 21.0885185600000007 24.7315000900000008  2.3220591700000002
  1.8483923799999999 20.9308144899999995 34.1990499600000035
 13.4326226500000008 12.0889396199999997  3.8082049200000001
 24.5000894600000017 33.0035903200000007 11.3425513799999997
 24.2610921300000015  6.1753699400000004 14.4425007700000005
 10.1104385699999995  1.1411001999999999 33.4711076700000021
 28.9065447199999994 32.2971288099999967  2.8438742399999999
 21.9942771400000012 22.8158470899999983  5.9420163700000002
 12.4691323000000001 23.7065932599999982 31.7129448399999987
 19.4639876100000002 21.2396995500000010 10.6304087099999993
 25.2791838700000007  2.2433396299999999  8.8091606900000006
  5.5637123700000002 24.3137541699999993 16.2663566899999985
  3.6568650100000002  0.9301584100000000 23.1724391800000014
 14.1852188100000003 25.9724724299999998 34.3440873099999990
  1.0754632700000000 15.3111767400000005 14.9475437099999997
 28.3671727699999998 32.0727047000000027 10.9479452599999991
  7.1159527200000001  2.8174117999999999 32.2401432200000002
 25.0871620299999982 29.9322063999999983 15.5929833599999998
 26.2713037900000010 16.8028032699999983 24.7145895399999986
 33.1064812099999983 25.6297497900000018 14.2046365800000007
  2.3269834100000000 14.6100950500000000 26.8675367300000012
 27.6897988300000009 22.4489268499999994 34.1135830200000001
 11.9898482400000006 18.3792881900000005 25.6966756600000004
 19.0277619499999986  4.5951199899999997 20.1817538899999995
  9.7376170700000007  0.1301066600000000 16.7025977099999992
 20.5597538799999988 27.7835108999999996 22.4676650199999983
 34.0460559099999998 32.0617061900000024  1.0959905599999999
 10.3132646999999995 15.0398486499999997  4.7362274400000004
 11.7746555100000005  6.6352208800000003  8.1572594600000006
  4.0598249400000004 18.4777796300000006  1.0422156199999999
 16.5179989200000001 33.0079121200000003 13.9789670800000003
 24.4997820299999987 27.8365822099999995  4.4371303199999996
 24.8493523500000002 23.0650234099999984 28.8485250700000009
  2.1608288400000002 22.0502523199999985 18.5907076199999999
  9.0229293599999991 28.3737641899999993  2.8548050400000000
 30.7083560099999993  5.3395169700000000  1.2617855899999999
 31.8303677299999990 32.9904524199999969  0.5338301300000000
 12.0829600799999994  8.3099929199999991 16.0509877699999990
 23.9514169599999995 16.4647756700000016 13.4846634000000005
 11.7377105900000007 15.7018059599999997  0.2527504100000000
 12.9761624100000006  5.3616539000000003 23.3170493699999994
 29.6488135100000001 12.6085790000000006 22.3872967699999990
 13.2967812199999997  4.0019043800000000 25.0069310400000013
 11.4899105699999993 15.9269925099999998  4.9630676999999999
  9.2788362200000005 24.4003053899999998  0.9326754000000000
 30.4754520299999996 10.9223123700000002 31.3039477999999995
  5.4506586199999996 14.2194511499999994  6.3155254799999998
 25.0366600900000016 21.1461422399999996 13.2125687000000003
 23.6421556600000002 33.7101801399999985 21.9975497900000008
  7.8192963200000003 28.9132639599999983  5.2273327199999997
  5.7809966499999996  1.2106242599999999 11.9619298999999994
  4.1558934000000001 23.1002941600000007 26.6440293799999992
 16.2017604099999986  2.9871867100000000 15.6470329300000000
 24.6824447599999992 17.8491198199999985  5.1568006999999998
 10.3494111699999998 27.5535055900000003  6.7684742299999998
  7.7464300499999998 29.2498894500000013 27.8919436300000001
 24.8966013799999999 12.1793590100000007 18.4868425899999984
 13.3633577900000002  2.9543136400000001 23.1494256699999994
 12.3972844700000007  6.1601144300000001  3.0432479099999998
 12.8676586499999992  1.7389614400000000  1.7249208000000000
 10.7438827000000003  7.4365894900000002  1.7595253500000001
 32.3425135700000013 30.6255361599999993 13.3862081899999996
  2.0011012799999999 32.5091754700000024 31.7120516700000010
  4.4524635200000002  2.5543957900000001 21.7300660800000003
 27.2206454600000001 12.3882764699999992 29.7626403699999997
  0.6966898500000001 19.2662705500000015 23.2092136599999996
  2.2539477799999998 12.1003874400000004 21.2116667899999989
 29.4838010600000011  4.2444330199999998  6.1857574599999996
 14.0256328900000007  3.8120597100000002 19.2875176999999987
 30.3099293299999992 28.9821874800000003  8.6249169699999992
 23.9795554300000013 34.3880473999999978  4.9127006299999998
  2.7594842499999999  3.6517816999999999 20.4949680100000009
 23.9272872300000010 30.9164081099999990  2.0711031800000002
 19.0311439100000008 26.4357702799999998 15.9910791400000001
 32.0671761600000025 23.0297284100000006 30.6454234499999991
 32.6318907699999983 29.1881380099999994  5.0355117299999996
  1.8456895300000000 10.5039846000000008  0.4691969300000000
 10.7928463600000004 25.3687123899999989  1.9490763400000000
 33.1261097399999969  5.5263580899999996 26.5004910900000006
 18.7538024999999990 20.1586737099999986  6.8290640500000004
 11.0795533800000001 14.0536998200000003 20.5328098099999998
 29.9344067299999992 17.5739477199999996  0.3393931800000000
 34.1811061900000013 26.8517009299999998  6.5375202600000000
 11.1030076199999996 23.2490578600000006  6.9155116599999999
 29.0045440700000015 34.3721139299999976 17.1188019800000006
 15.7048130500000003 15.7928995200000006 26.2622098299999998
  3.9606597099999998 31.8077181300000014  2.3186691300000000
 14.8721502500000007 21.2293096500000011 11.0072838399999995
 24.4194653300000013  7.9537257200000004 13.2681649000000004
 13.0474864400000001 14.1045238699999995 34.7326866399999972
 22.2643915399999983 12.6286710499999995 10.0742730399999996
 23.3069534400000009 34.9664364100000000 30.8968263000000007
 22.9595579699999988  6.2908180400000004 29.7788205599999998
 27.6372337299999984 13.9872336500000003 23.4359544299999989
 33.0861029599999981 33.1324130499999967  6.4660489800000001
 34.8852440300000026 31.2963650199999996 18.0069225000000017
 32.3464845299999979 27.3654870000000017 31.7399331499999988
 18.0565185899999996 25.9079125700000006 34.2866267500000035
 15.3358152899999993  9.0475110399999998 21.5180144400000017
 33.2686476100000021 21.1603790700000012  7.4910909600000002
  7.7657272400000004  3.5776447100000000 34.4746448699999988
 25.3564125999999987  5.2265675399999996 27.9205892800000015
 16.3440805900000008 14.9624191900000003 33.3793647999999976
 26.9842699300000000 29.6246672699999998 26.7827275200000017
  2.3014579400000001  5.6035161200000001 28.2954413600000017
 16.4828573200000008  2.3829730599999999 10.6281991399999995
 23.1429052099999986  7.8078445399999996 11.4432388100000004
  1.5147329599999999 13.1168886800000006 25.5480461699999992
  6.0120349500000003 34.2713238999999987  3.1408163299999998
  7.7001216599999998 20.9447414899999984 23.2702974299999994
 13.8888531700000009 14.9552817299999994 18.4200247399999988
 10.3557935499999996 29.8222705099999992 22.9004096399999995
 27.1848077299999993  5.0635414799999996 17.9416214399999987
 19.8315572300000014  3.9823178900000000 10.8167699499999994
  7.4525028000000004 24.2145813399999987 29.4686471099999991
 29.5519938999999994 30.3615047400000009 20.8101850400000004
  1.7798933699999999 24.6678267099999999 17.1635403699999998
 32.6229657200000034 19.1849316300000012 21.1459113700000003
  9.3324504800000003 15.4952389799999999 28.4815688899999984
 29.7283954399999999 20.1421683000000016  9.4226621500000007
 26.6827289800000003  1.6259912500000000 28.0350206100000001
 14.5914448399999994 28.4134258600000003  4.4484321700000002
  4.7995605200000000 26.2136636600000017 28.0450725100000007
  8.5336821900000004 30.5965538700000010 16.2808509900000011
  2.2625476899999999 16.6391053999999983  3.4445187700000002
  2.0270037099999998 12.8513177100000000  7.0967157600000004
 29.5018017400000012 26.7818935899999993 23.2856436799999997
 26.8133088700000002 26.2822149899999999 25.1873528700000016
 33.8396896599999977 28.6641594099999999 18.5271805799999996
 26.3239644999999989 26.8713283499999989 21.4155018099999985
 25.3389263500000013 26.3352101400000009  5.8767763500000001
  0.9800463500000000 21.6390050199999990  1.7573883500000000
 31.4260136900000013 27.0120121200000014  5.8877770199999997
 10.8684328000000008  0.7500968500000000  6.8777263199999998
 23.9462935700000017  0.3560087900000000 33.4397749099999970
 27.2968451700000010 33.0768327199999987 17.3275191299999989
 23.6140980899999988 17.1466618000000004 28.9448245499999999
 10.6662008200000002 31.8372086000000003  7.9649431100000001
 26.7989044700000001 29.1874911499999996 29.1637847999999984
 15.7311130400000003  2.8168436500000000 22.6911900899999992
 10.8318485500000001 15.8785962400000003 31.5670235599999991
 16.9649372000000014 19.6995643700000009 25.5783462499999992
 25.2654301799999992 16.0849885300000004  0.4022991800000000
  6.4422380300000004 19.6945349400000005 11.0487450299999992
 21.2577442699999999 33.9080090300000023 21.9076947900000008
  2.6263355900000001  5.8222919700000002 30.2611896099999989
 14.8137655600000002 19.9576840199999985 23.7954028499999986
 19.3356674499999990 34.5628892399999970  3.4794882000000000
 29.7582209999999989 31.4202976000000014  0.9417641900000000
  8.2307620299999993 14.4174243299999993  8.6507101199999994
  2.4850444600000001 11.1422789899999994 18.2830527300000014
 18.2672729199999999 33.0559195900000020 15.8405798699999991
 22.6259156099999998 33.7636895400000014 11.3300632900000000
 24.3736778500000000  8.4037022700000001 16.0239808100000012
 25.0455181499999995 30.0235254000000005 10.3913446700000005
 32.3297969600000030 26.8974485700000017  5.4180760899999996
 26.6047939400000004 21.7717655900000011 28.0642254099999988
 15.4363978100000008 19.5379100100000009  3.6535534699999999
 15.2731290800000004  5.4805037499999996 25.8265618799999999
 32.0255521200000004 23.4544116100000011 28.2958707099999991
 23.6990828299999983 10.4851525799999994 33.9594758499999969
 11.9105439099999995 15.5114280600000001 20.5714007700000003
 13.5326673700000004 13.5404299399999992  4.0060837600000001
 25.2498082299999993 33.5268526500000021 20.8125178700000006
  5.9878511100000003 12.8135322400000007  2.0362738800000000
 28.6551159300000009  6.5333763100000004 11.4556388699999996
 34.9224156000000008 26.0389521200000011 31.6682987199999992
  4.0965125999999996  5.0873211899999999 32.6072202799999999
 34.5512817500000011 18.3924034399999989  1.1246440499999999
  1.8925008400000001 27.2615722200000015  0.2443488200000000
 11.7705385899999992  7.4420163300000004 22.9684631500000016
 15.9601123800000000  1.6086898000000001 17.2494013300000013
  5.6881007600000002 14.9093982799999996 17.2568691899999997
 26.2004063400000007 15.2293179900000002  4.1474697599999999
 21.5243265500000014 34.3562568799999966 30.6093279100000011
 20.9742429600000015 29.1014693800000011 18.3958522799999997
 24.0892000899999985 22.1858923899999994 23.2934251299999993
 17.5961654400000000 23.7524929000000000 33.1481058600000011
 25.2152017400000013 11.8956249599999992  9.7686835799999994
 32.2650013200000032 22.8771450600000001 21.1770907500000014
  8.3642613899999994 18.1411875299999998 13.9388727800000005
 15.6348708799999994 30.2748585900000009 34.5482652900000033
  2.6947486500000002  0.6406102400000000 21.7363858500000013
 28.4369985000000014 15.6338402700000003 12.9533424799999999
  6.8271021300000001 13.1055335500000005  9.7023839699999996
  2.9673642999999998 32.4918375199999971 20.3131189600000006
 12.5903516000000000 31.0392943999999993  2.4209149100000000
 18.3169314700000001 27.6672942000000006 29.2136879799999996
 14.4537968200000009 24.9631301800000003 10.3289001799999998
 32.8253405600000008 25.4987543099999989 17.5636521999999999
  2.3025559599999998 24.0579774399999984 22.4268161200000016
 12.4985133800000003 27.5142965699999991 12.7825084699999998
  5.6198790499999998 23.3072090600000017  4.2626435599999999
 32.2502496099999973 19.9451237100000007 22.6942361000000012
 27.0261256000000003 33.0929766699999988  8.6588584300000004
 34.4336321199999986  1.0551229099999999 23.4507107999999995
  1.0964662700000001 18.3085270099999988 26.4134599399999992
 26.0212754500000010 14.5764258699999996 20.9896163999999992
  7.4828285200000000  8.8988573399999993  8.0952379699999995
 11.6644901900000004 10.0866341500000001 21.0602342100000008
  4.3563442700000001 32.0780634999999990 31.0132548499999992
 19.7742591099999991 20.9728596899999999  5.8528090400000004
 18.1615946500000014  6.9213270199999997 21.7432565300000000
  3.9124942200000001 27.2904225999999994 30.1325738700000016
 23.1690890899999999 27.8803617599999995  5.2401234499999996
 10.7548856900000001 17.3638729900000008  4.6134242499999996
 12.8213028500000004 27.6369717000000001  9.5833747999999996
 32.7802552100000000  2.7493304200000002  7.9964303799999996
 31.0053933400000012 27.6458931399999983 19.5260442099999985
 14.2250642799999998 30.6554022999999987 25.3464055700000017
 12.0384399999999996 30.0610378099999984 10.8624818800000007
  5.7328935000000003 32.7410839100000004  9.3972223100000001
 19.1153410900000011  6.5377575300000004 15.0907775500000003
 20.6982504499999997 10.4953296999999992 30.0062630199999987
  0.2625925500000000  3.3930117300000000 11.3481128200000008
 12.7320854299999997 33.1598757599999985 13.0319284399999997
 32.6212615399999990 25.5427289199999983 21.6449548900000011
 31.7567867100000001 21.3141880700000002  2.5589753900000001
 28.6993946000000015 15.7249850700000007  4.8240155800000002
 17.2298067000000010 26.3612521300000004 23.5645205900000008
 23.8975058900000015 20.3814317100000011  5.7226742699999997
  0.9864799000000000 24.7676139999999982 14.2884181100000003
 10.4431143199999994 27.4224079200000013  8.4099931199999993
 16.7543945900000004 16.1098161299999987 32.6797724199999990
 28.9350658199999984 21.6512890300000009 33.2147397700000013
 25.1312718500000010  1.2859736600000000 18.3593793599999984
  6.0888669799999997 30.5872678399999991  0.2105257600000000
  3.3065119300000001 27.5460209300000010 20.9737541199999988
 20.8854251899999994  6.3412374600000003  2.1780129600000002
 30.8639004700000008 29.5752622100000018  1.4319500700000001
 21.7848370899999999  2.7569846700000000 31.6413185199999987
  5.6403952400000001 18.1227555000000002 19.1517681000000017
 23.7664497600000004 22.7211801300000005 24.8744079999999990
 24.1752262100000017 33.0269623399999972 19.1559682799999997
 24.3588526099999996  4.2357406800000001  0.0936225900000000
 33.5149013199999999 29.9464811799999993 10.5091981800000003
 18.0938532700000003 23.3919202999999989 28.0044337500000005
 25.5181018399999999 27.7375553799999999 20.0932223000000008
 26.7871977799999996  7.4330375499999999 12.0621328900000009
  8.2674492399999995  1.0192960499999999 16.3086823999999986
 15.0251115399999993  2.0496410300000001  8.3168370300000003
 26.0799891200000005 21.3771857199999999 11.3603758300000006
  8.8366241199999997 12.1416444299999995 14.6179654299999999
 19.1449167699999983 13.6161005500000005 15.8020061999999992
  4.3182872000000003 22.4529700100000014 32.0670124099999967
 20.2776247900000008 11.0399118400000003 12.7983674999999995
 27.1624977899999998 15.1003119300000002  5.9426131900000003
 22.4999158600000015 16.0858337700000007 14.6082159399999991
 30.2853192699999987  0.3610374200000000 12.9559539000000008
 15.7172244100000000 14.3906846599999998 14.2371472699999995
 23.7341883699999983  5.5039002100000003 34.0508631599999987
  7.8571901100000003  0.7941975900000000 13.0789185200000002
 17.3835097199999993 19.6478157899999992 30.8399176200000014
 11.4954880399999997  4.6675259699999998 12.1089971799999994
 25.9155602800000011 22.8216718000000007 33.8379605900000016
 34.6036763899999968 23.9891367799999990 20.4218560099999991
 20.1339767899999984 11.7479048099999996 12.0362121999999996
 27.6185133200000017 14.3533367500000004 16.5307141299999998
  1.7124423400000000 11.0183568800000007  0.5240695600000000
 23.0370949899999999 14.4555719800000002 19.7982672199999996
  4.4772143900000003 33.5422399099999993 34.4261636499999994
 15.5324082499999996 23.1855328599999986 24.2507871699999988
  7.9799313400000003 33.7060953000000012 23.3436994800000015
 22.5571698900000008 33.3543304599999999 26.2320843900000007
 22.6423486099999991 29.9530518900000011 15.9431424899999996
 31.3957584800000014  8.5127267000000000 28.3976889300000011
 19.9577700600000014 25.2414419599999995 32.9150937300000024
 28.9802446099999997 10.9711130400000005 11.4968414600000006
 27.4143595100000006 13.1402790599999992 33.6701741999999982
 14.6178487300000004 17.1836286300000012 20.2463918800000009
 11.1082641300000002  6.5952271800000002  0.9832745200000000
  5.8949185899999996 25.8968014400000008 22.5418646400000000
 21.1190648400000001 13.1227750200000006 19.4796929699999986
  5.1997729599999998 32.5841800999999975 32.3149355899999975
 22.1224737800000000  7.4168694799999999 20.3253876700000013
  8.7904893899999994  6.7551452300000001 28.7259625099999987
  7.2519481399999997 13.4924708300000002  2.9572002899999998
  1.6652843700000000 23.4344286599999982  7.4425344999999998
 31.6772946699999984 15.2915576200000007  0.2089889300000000
 12.4769497999999999 15.0953673300000002 27.8387807900000013
  6.3887849399999999 31.3084251400000007 10.7013947100000006
 28.3408924000000013 10.3785637699999995 27.5213573499999988
 26.4530411799999996 26.2630929500000008 18.8031733500000016
  9.9344869399999993 18.9220789600000003 13.3810897799999999
 20.9758808899999991 21.6301753999999988 28.3580006900000008
 17.9176485599999999  1.9194238900000000 24.7573158199999988
 16.2069314499999990 19.8969042199999997 17.2691599899999986
 22.7719836099999995  3.7285941000000000 16.4811087399999998
  7.9946042999999998  0.3145210800000000  1.1558233600000001
  0.9232160500000000 11.4922304299999993 19.9169075999999983
  3.4659955600000001 12.9872933800000006 17.4397802000000013
 20.3858857799999988 10.5822484200000009 20.8492697500000013
 28.6766489900000003 18.4395218400000012 23.0434874000000001
 16.8927994900000016 32.2810924099999994 13.3201523200000000
 11.7999815899999998 12.2906267499999995 33.5638498200000015
 12.6238557599999996 34.1437451199999984 28.9242119899999999
 14.2309481299999998 24.5451388900000005 20.1492880800000016
 24.0847958400000017 18.1637006200000002  7.3162776599999999
  9.6785786999999992 22.8722543199999997  8.9782996900000001
 13.2829513400000003 16.5632375399999994 23.3333071799999985
 22.8937783500000016 20.7326919200000006 29.3530877900000000
 12.3464240699999994 26.3493894699999984 34.1888985300000030
 17.8175380099999998 34.3612849499999982 10.1161935300000003
 27.8646543099999988 21.2449879099999990 29.5118234199999989
 20.2162778400000001 29.9816990799999985  7.4163704499999996
 11.9381416500000004 24.3467589400000008 10.9775350899999999
 14.4323347700000006 14.2504668300000006  2.5960545300000000
 21.8885647900000002 31.1084816800000006 10.2516677699999992
 29.7802060699999984 15.9234214999999999 14.9451854199999996
 23.7313474199999987 27.7561213900000006 17.1322473399999993
 31.6810902699999986  9.0840978000000003  6.4316991699999999
 17.5680284700000016  5.8544220700000000 10.2717464500000002
 17.2425655400000011 30.7990740199999991 25.0369704599999992
 26.3624564799999987  8.8060550600000003 23.3674252600000010
  1.3163577700000000  4.0251211900000001 30.2117799200000015
 24.3851939900000012 26.9554490400000013  0.2319687800000000
 13.6992332999999995 13.0140872800000000 12.7649585499999993
 25.6583047899999990  4.1285564800000003 18.6488257600000011
  5.8145455600000000  5.0672673300000000 10.5620454200000005
 31.2974262100000011  0.8423180100000000 16.8388171699999987
  0.0001574200000000  2.6458215200000001 18.3223486199999996
 13.7132478599999992  3.5568487000000002 34.9561157400000013
 32.4373260099999996 14.1381805499999995  5.4005080899999998
 11.3394391500000005  6.9538662400000000  8.6298266100000003
  1.4958231500000001 10.2997334800000004 32.6205454700000033
 13.5076513299999998 13.0958598500000001 22.1165280700000011
 12.4873214699999995 14.4119724500000004 22.0210267100000010
 17.3959550800000002 18.8170041499999989 32.3887673899999982
  3.0135901600000001  4.4098397800000004 21.1771946699999987
 10.1107939499999997  7.1139895600000003  4.8225738299999996
 27.9983109200000015 27.6115594900000012  2.4802862700000001
  1.1713030799999999 16.0908265800000017 28.5223123500000000
 14.5036566600000008 22.9574528999999998  5.9109331699999998
 15.0537405700000004 28.2177188600000015  5.2008605100000000
 15.8625089799999994  6.1883881900000004 23.2403538400000009
  0.6269740600000000  2.5530190400000001 33.5909749200000007
 13.5154218400000001  3.6949141299999999 10.4218514399999993
 20.0570827099999995 14.3891363099999996 23.2139216399999988
 11.3809671699999999  4.9152291699999999 10.2567084600000005
  9.4990880299999993 16.1725136499999991  1.4368822200000000
 34.6793923800000030  1.5476606399999999  6.5324116600000002
 30.2426888399999996 18.8712539799999988 34.1655993299999992
 11.2280087399999999 24.1428343000000005 13.6161076399999992
 15.9211626800000001 11.9811116799999997 11.5440004300000005
 15.0152709499999997 11.6588143899999999 19.6935236899999992
 29.0526493600000002  2.8778121099999998 32.3880907899999997
 26.6419538899999999 16.3190456399999988 14.2000985100000001
 31.0556105000000002 31.6457020500000006  9.3144309799999991
 27.6413974300000014 13.9665969899999993 26.5955697300000011
  6.7404300099999999 26.4072545900000009 26.7278613299999996
 25.1654088499999986 15.0265776100000004 26.6898298199999999
 15.9698265100000008 24.8741484700000015 19.8132775700000003
 11.7561186200000005 10.0856960999999998  5.2943263900000002
 11.7436413799999997 10.3807144900000008 28.6685003400000014
 21.4851817899999986  6.4503692099999999 16.3552296099999985
 27.3440520999999990 21.4836254000000011 15.2920995699999995
  9.3174740000000007  8.7855465800000001 28.6814443600000004
 29.0353159400000003 26.5550299699999997 25.3886575000000008
 22.1666374499999996 14.6756780899999999  9.1216045399999999
  6.8075112100000004 33.8408654300000009 13.4252330700000009
 27.8922858399999996 30.6481610099999990  8.6421764799999998
 34.0600971100000010 23.0520576699999999 20.9332516599999998
  5.1606622499999997  5.2505174200000004 10.4462173699999994
  9.5754152099999992  4.0034210899999998 15.4981983499999991
  8.2196716799999994  3.0219139500000001  4.3077555700000003
 20.4478113899999983  1.3660946100000000 34.9521476000000035
  0.7447638300000000 22.2457628000000014 14.5353166700000003
 30.0672508399999998 10.2849136899999998 28.5443480600000008
 34.8578590899999980 26.0376457600000002  9.7122806599999993
 29.3010336500000008 12.4724884599999992 10.1136235600000006
 19.6711180299999988  2.4806704800000001  7.6287620900000004
 11.6044456199999999 15.9176022499999998 22.1410053799999993
  3.8773693100000002 31.9459806099999994 16.0961329800000001
 12.7069597400000003 30.8723522400000014 31.6240208000000003
 29.9175043000000009 13.4947833900000003  6.8243979100000001
  2.6556941400000000  9.2514337999999992 18.8479407499999994
 27.3402224300000007 27.1183123899999998  7.4763640699999998
  5.2508904999999997 16.7165870299999995 10.6782086899999999
 23.6534839099999985 14.1041434399999996 28.3387777499999984
  9.8376122200000005  0.7485973700000000 16.6759955399999988
 28.4570048200000016  1.8799819499999999 26.8567175499999991
 20.8518180599999994  1.5061416999999999  8.7236237899999995