Na Cl 
 1.0000000000000000
    35.0000000000000000    0.0000000000000000    0.0000000000000000
     0.0000000000000000   35.0000000000000000    0.0000000000000000
     0.0000000000000000    0.0000000000000000   35.0000000000000000
 1500 1500
Cartesian
 27.2982690900000016 22.0086568299999996 19.4953037699999996
 22.5705455700000002 13.1593132599999993  3.5779091599999999
  3.9193182400000000  1.9816769900000000 21.0450953200000015
 29.9170099299999990  5.1858793299999997  9.0739267800000007
 10.4873591699999995  1.0456266100000000  3.8465059400000001
  3.2252612799999998 26.9662852000000015  7.3553772300000002
  1.8251520299999999 15.3301469699999995 18.7801311999999996
  7.6649961099999997 25.5896165199999999  4.6847757200000002
 22.0254590300000004 21.8898421300000017 17.5766430100000015
 10.6391228200000008 31.7372797700000007  8.4610447799999999
 34.7796050600000015  5.8222006200000003 28.7258516200000003
  5.3881765699999997 14.0836024099999992 33.1057727700000015
 13.7228681199999993 25.2445113300000017 14.5019023300000001
 28.4723893500000003 15.4478825999999998  2.5629029999999999
 24.7107104600000014  2.9106339000000001 24.0239365300000003
 10.3012617399999993 23.3060241300000008 19.3476252100000004
 25.5368515599999988 27.8642396199999993 14.2752930300000003
 34.8499704099999974 33.4526502800000003 33.6932159699999971
 16.8807654199999995  5.0243490399999997 24.2342352900000009
  9.7925751800000000 13.8110810300000004  2.8389156899999999
  8.6559667200000003 20.8325834000000008 28.2291547799999982
 22.4043586400000017 20.0557335200000004 26.7132488099999996
 24.5726892700000015 28.1885989499999994  5.7824981299999996
 26.4460475600000002 13.7213966099999993  0.5128322800000000
  9.1721694500000002 16.6520135499999995 10.3917485700000007
  4.1181548599999998 18.8287503100000002 19.8063883899999986
  0.9697203800000000 23.0904797799999990  1.6936708000000000
 10.5251637599999999  6.4273800799999998 14.9770839700000007
 34.8502812799999973  3.6774561299999999 32.0052024599999996
 31.4378096000000014 15.2659198099999998 24.3142592800000017
 24.7557759500000003 25.3264196599999991 26.1352498100000012
  5.1435391800000003 32.4629845299999999 25.3810662299999983
 34.5801874900000001 14.2111446699999995  6.7085158299999996
 15.0256286499999998 10.7406675699999994 23.3998142499999986
 20.6781802600000013 23.1756840699999991 33.7221772999999985
 13.6338577399999998 34.2470582899999982 15.3087533600000008
  9.2176702099999996 11.3831849199999997  7.1890171399999998
  5.8111412199999997 17.8505208700000004 28.7043109500000000
 28.3541090400000009 22.5106066799999986 20.7663975900000004
  0.8443215400000000 15.5121622299999995 32.9105327999999986
 22.3248317599999986 13.4474558599999998 16.3905755900000010
 26.4039846300000001  6.7696093800000003 26.8248877899999982
 10.8891128699999999 33.3199382999999969  8.2029431499999994
  1.8655072100000001 28.5797423700000017 34.7299730800000006
 11.6575942999999995 34.1873796699999986 27.2901128700000015
 24.9269426199999984 32.1246835500000003  9.5563569600000005
 33.6913758900000033 20.9545933600000005 13.8506787300000003
  3.3573953400000001  7.7435250499999997 15.4255935399999995
 12.9505687199999997 30.2084336100000002  3.1436131399999998
 19.7061172000000013 30.7117971099999991 28.1739596299999988
  4.7394492599999998 30.9237391499999994 20.2838258099999997
 10.2604624599999994  2.5925769000000001 33.4399869399999972
 30.8605824200000001  8.8086637099999994 32.2109806400000025
 24.9516694399999999 27.7082174300000013 17.0103190499999997
 12.4321940899999994 32.8860345900000013 30.5833408099999993
  4.2090711299999999  6.8584761600000004 15.4088059400000006
 10.8014653000000003 30.2273723300000015  6.4467076099999998
 24.8148837200000010  3.7506358099999999  1.9361147999999999
 25.2815084399999996  6.3124184500000000  7.8168156099999999
 22.2200035299999996  1.5993133900000001 34.6601734899999983
 28.5358311100000002 31.7134087999999998 27.2617514900000018
  3.2572270600000000  4.2151511199999998  4.0448751400000003
 12.2164990600000003 12.6996627499999999 13.2318545899999993
 32.7800823399999999 34.8438299700000016  0.2502711700000000
  6.3075550500000004 31.0776672199999986 17.3529911299999995
 31.7219359099999991 30.5768557500000000  0.2145917900000000
  1.6442551800000000 19.9968842600000016 17.6337241499999990
 25.0018451299999995 31.0111664199999986 19.6740495399999986
 16.7506389899999988 22.9894828199999992 19.2376857900000005
 32.7851104900000010 14.3520652000000002 30.1597954399999999
 25.6820049600000004 17.4574114599999994  1.7143354300000000
  7.8356002000000000 22.9326089099999990  8.3578934599999997
 16.1153922499999993 21.3975702800000001  3.9637207399999999
 13.2545521199999996 29.2574729399999995 15.3477323600000002
 34.3377617399999977 34.7615936700000034 18.1047726900000008
 31.9145270500000002 12.4561167200000007 14.9536635499999999
 26.2233133000000009 15.2266181700000001 28.7715895400000008
  4.1054743299999998 15.7071280699999996 19.7014594999999986
 22.4298299400000012 28.1517926500000009 17.1790716000000003
 13.6564466099999997 28.8982047599999987 32.1274814800000001
 21.5812531800000009 11.1221898699999997 30.6451086699999991
 27.3413434100000003 10.9587311100000004 13.3937611099999998
 23.9430106000000009 15.1791663499999991  1.2488310100000000
 24.1027315299999998  4.6087565699999997  4.3716948499999999
 10.0753827000000005  6.9569957200000001 26.2271368799999998
  9.4894840100000000 29.7576782500000014 22.2983903099999985
 24.0458607499999992 28.7815574400000003 31.6359129299999999
 19.7886529300000014 17.8898075500000004 23.9955194399999989
 22.6952776199999988  9.5308961399999994 25.7714491999999993
 15.7466927299999995 19.6646973900000006 34.5690084599999992
  1.3252196599999999 12.9668762300000004 24.2888633700000014
 17.9266103399999999 12.5400525399999996 25.6630227899999994
 13.4240384699999993  7.8145572799999998 19.2641474799999983
 22.5266439500000004 10.3049113499999994 14.6450366800000005
 19.1314415099999984 32.1374486899999994 14.1001870199999999
 31.8431661599999991  3.0936330900000000 19.6913389899999984
 27.3343770799999994 33.8755817500000020  1.9024273500000000
 19.0965205199999986  5.2203303300000004 28.0919297800000010
 26.0637324600000007 28.1513954800000015 10.5038438700000007
 33.1038724799999997 16.7848247899999983  2.5502119900000002
 21.4129557800000008 17.5477828400000000 15.5862700899999993
 18.4413556700000001 18.8647469799999996 29.8024197400000013
  4.2685883400000000 27.1641840099999996  8.4406515800000008
  7.0310810000000004 11.3783025700000007 30.1312963899999993
  1.6984624600000000 21.0585034399999991 10.2673732700000002
 13.7424708599999992  4.7077735699999996 23.5504273499999996
 32.0325185100000027  0.5386566600000000 23.2024948100000010
 29.3303180200000000 14.6550070699999999 11.7037903199999995
  5.6038290599999998 33.5550354200000029  4.4803121099999998
 15.6056743999999998 29.5696063100000011 11.3732994999999999
 16.0446285400000015 22.0718965199999992 32.3647335599999977
 19.0769850900000009 26.8883697700000006 27.8306808399999994
 10.2529265899999995 15.9371909600000006  1.3684199800000001
  4.0346486400000003 15.3397254200000006  4.7651815199999996
  8.4058521400000004 17.1568798099999995 25.6788843399999998
  0.0091152600000000 13.2001608299999997 25.1029900200000000
 15.9532758900000005 26.7078843699999986  4.4126023500000002
 32.6076781499999981  7.2465984600000004 28.5802841500000007
  8.8357189199999997 31.9279652300000016 28.3115939300000008
  7.9591018399999998 33.6246545600000033 19.5692006899999988
  4.5559840300000003 27.4235106699999989 26.9438920899999985
 15.9943190000000008 16.5194924699999994 23.1099349600000004
 13.6768348900000003 21.5640040999999982  1.2169588600000001
 13.4275528099999999 31.8800095500000005 27.3205081900000017
 10.7811434199999994  3.6775349799999999 33.3304415699999979
  9.7314758799999996  1.9151271000000001 22.5410978799999988
  8.2320869499999993  1.6854406000000000 12.2001134100000002
 17.3060464899999999 12.7233848500000004 26.9291358900000013
 12.9869688500000002 11.9854269400000000 14.0705730399999993
 24.1211042599999992 33.3993296599999994 12.5335517000000003
 21.4033860599999990 31.7095552000000005 32.4943196199999988
 27.0299367599999982 27.1471132299999987  1.5321373599999999
 25.6326051499999998 27.1948371900000012 33.6285869599999998
 15.6610498899999993 15.2654728500000001 16.8021970100000004
 14.5252046099999994  0.1139639800000000 25.3926244099999998
 18.8383814799999989  6.6775793800000001 20.0766389200000006
 28.0703485999999991 13.3489664599999998  6.0792759900000002
  9.3915707800000003 29.1301018599999999  9.6220017599999998
 16.9836115800000016 18.5599029299999998 16.2886064799999986
 27.6090450400000016 30.2200053900000007 22.6305327799999993
  6.3644103899999998  6.6454613399999998  5.2687850500000000
  2.4702615200000002  7.6854213199999997 18.8761252000000006
 11.0362307299999998 20.9298619399999986 18.1896246599999998
 23.0216417000000000 34.7319905199999965 10.5645956099999996
  4.1584200600000001 30.5660172400000008 28.0517384400000012
 15.5678842100000008 24.4300007100000016 10.0218866099999993
 17.8482772499999989 25.9958072999999992  6.5332338600000002
  9.0615525100000003 12.5130225999999993 26.3708926599999991
 10.5929433300000007 25.5985882199999999 15.4722234299999997
 26.6591202699999990 24.8343917300000001 16.6218580200000012
 28.5677757499999991  8.6069966900000008  2.7933566399999998
 12.9449730400000007  6.1619282399999999 33.5278562100000030
  2.6793219200000000 21.3635231499999989 26.7335278099999982
 15.4018353999999995 33.6476438299999998 20.9498116400000001
  3.4841581100000001  3.2453564300000002 14.7055807499999993
 21.6956631900000012  9.0112629399999999  7.2961741399999998
 21.7987606900000017 26.7709822499999994 14.8986287700000002
 11.2538054899999995  2.7088603000000000 27.8151305200000003
 28.8986819600000011  5.1476707800000003 31.9027197099999995
 24.0101890599999983 24.2475492000000017 23.5593900900000008
  7.6693086199999998 28.0698961500000017  5.7445921599999998
 19.3604935100000013 31.8143398099999999  8.6091704199999999
  4.3272787900000003 33.5746036899999964 18.3642273699999983
 17.5694321299999991 29.4457599799999983 29.8880579200000014
  8.5894709200000001 23.2377361499999999 26.6313914499999989
 13.7961726999999996 32.2744950399999979  7.4380701100000000
 26.6443273100000013 21.2090714600000005 20.8640407100000012
 31.9321733099999996 29.0368493900000004 17.3276161299999991
 25.2442134100000004  9.4948651999999996 15.1993579400000005
 25.6089285000000011 14.2612529899999991  8.8790674599999999
 25.4867927099999996 26.5250440699999999 11.4156744799999998
 28.2409440700000012 10.5470536199999998 24.3302462599999991
 13.4489635700000001  6.7306374499999997  1.8236788100000001
 25.5697060200000017 20.0490269000000012 18.9950612399999983
 14.9942476599999992  8.3204300900000003 16.4684891200000010
  5.8966320300000001 19.6945923799999996 12.0140494199999992
  5.1285338500000002 25.2684485599999995 31.8149662299999996
 19.1373980099999983 27.2483336799999982 22.7441534999999995
 25.9879440899999992 14.3763799100000007 18.8171881899999995
  0.4819050500000000 14.3782201000000001 14.7452777000000008
 23.8823334500000009 10.3783639900000004 24.1636101500000002
 12.7957941200000000 18.9117116100000011 14.1370742299999996
 21.8066199999999988 18.8623686200000016 24.8293952800000000
  2.6464028800000001 28.0931793200000008 12.0648552000000002
 19.0213430899999985  1.7133155799999999 25.6948732299999989
 23.7343518499999995  8.2516210599999997 14.9952134099999999
 24.5517329500000017 25.9757639400000002 19.6644653699999985
 30.6694417100000010 16.3068994499999995 20.0590393400000018
 12.2741311900000003  1.3228973600000000  8.9358726999999991
  0.2125477600000000  2.2902116600000002 26.5873851300000013
  9.1818159999999995  3.7815138600000000 30.9033647699999996
 27.8516827300000003 13.2316500999999995 29.3431714100000001
 20.6818558400000008 14.9510558299999996 17.3953715200000012
  9.0091938500000008  7.5211110799999998 22.3139484000000010
  5.5307666099999997 30.5944506700000005 15.9324672500000002
 26.9770649700000007 13.5310123699999991 20.7249266200000015
  3.8416888400000002 27.2643279099999987 11.5592368200000006
 26.0932122200000016 33.6177021000000025  7.7191597400000003
 25.9176701099999995 23.2815421700000016 27.8792354099999997
 21.3095840900000013 30.1798581800000001 12.8764678200000002
  9.7945758299999994 12.4359417299999997 25.8726935199999986
  2.3600059600000001  9.6201233700000000 20.4134467400000013
 18.7993352700000003 15.4278297099999993 15.5338895899999994
 13.0823874300000007  5.6855387999999998  6.8506320699999996
 23.5732635799999990 30.8409931999999998 29.5727574900000008
 29.3352011799999985 26.7261500400000003 31.4037757500000012
  3.2589740599999999 33.5769493499999996 22.7877624499999989
 23.9235120499999994  2.4670933599999998 24.4380919500000005
  6.0114701200000003 24.7782510400000007 18.0653101999999990
 33.6685119699999973 21.6807236299999992  2.9220059599999999
  5.1542046499999996  1.7175982100000000 27.6730521399999994
 20.9873699800000004  4.7272101199999996  0.2204975400000000
 30.9021441900000013  7.3373210200000001 13.3544360500000003
 28.0067136199999993 28.8358100700000008 33.4598596200000031
 14.8605561300000009  1.3668416900000000 12.5082266000000004
 15.7644155599999998  2.5323199500000002  0.7014654200000000
 29.5292483099999998 33.0763154300000011  8.6334794499999994
 27.8890724399999996 11.6404216100000006 25.5660254100000017
 28.1890129499999986 12.7406882499999998  2.7473520100000002
  9.7452005499999999 22.5856214599999987 21.5399354900000013
 16.6958022700000015 11.3486863800000002 22.3719809800000000
  0.8842874600000000 22.2193824999999983 26.1617542900000011
 30.6043942400000013  8.0539389200000002 17.5514704100000003
  7.5632491200000000 30.5279724600000009 18.6331828299999991
 22.9038708799999995 15.3578191200000003 28.8659202300000004
 14.5212310099999993  3.3296376300000001 31.2196406700000004
 23.5007873300000014  2.7325942699999999  6.7118277199999996
  0.6884103600000000 20.1128772799999993  7.1283829900000004
  1.7329475400000001  5.6492792700000001 27.4367718099999998
  4.8237445699999997 12.6750163199999992 18.9993085700000002
 16.3791095200000001  8.6937290800000007 25.5046025699999994
 10.8554150499999995 26.9607353900000000 19.0796909700000015
  2.3661493100000000  7.8715346799999999 31.8833503799999995
 13.4697770099999996  6.5422641099999996 20.8329313599999999
 34.0774092099999990 34.0165486300000026 26.1327437600000003
 33.0243285999999969  9.8908455199999992 20.4405826099999999
 19.8719643999999995 18.1057274100000001 12.9606580200000003
 24.7793240700000013  1.0995737500000000  0.5360413300000000
 14.2466310299999996  8.1277465099999997 33.0355373299999968
 23.2758580899999998  2.3469720999999999  0.5601260600000000
 34.0386973999999967 13.3871495100000004 17.8217936799999990
  0.8863953500000000 22.6466560399999999 32.3481414999999970
 20.2141349900000016 28.9668608600000006 31.0305384000000011
 30.2588371000000009 10.2751828500000002  4.9981183900000001
  3.3758332100000001  2.6286941499999998 10.4625000900000007
  3.2389342800000001 11.7684438999999994  7.2366203599999999
  0.8783698000000000 27.7612558500000013 33.4270078799999979
 22.7215139800000010 30.4854451799999993  3.8770575699999998
 26.7066568400000008 18.7815494799999989 31.5020428899999985
  9.8347867400000002 23.2607714100000003 28.7850128900000009
 19.7116816800000016 19.2340139999999984  6.0732888500000000
 13.7657106999999996 10.2996755499999999 31.6470233900000011
 31.5221842000000017 33.3498320100000001 20.6266181199999998
 31.5706597699999989  8.0787850999999993 15.1412157900000004
 28.4138238299999983 11.1370821299999996  0.9394413100000000
  4.1901712000000000  4.2073182500000001 12.3977917499999997
 14.6859654400000004  7.0212063699999998 20.4155248699999987
 18.7264255499999983 15.0341766799999998 14.4074888699999999
 16.6653781400000014 25.0104637700000012  0.8646218300000000
  6.6990517000000001 30.9618737099999990 31.2114228099999984
 25.3830966199999999 33.7049575300000015  4.2211401500000001
 34.7025102799999985  5.0903452299999996 13.4322492300000000
  5.8128175799999999 11.0251371500000008  9.4801148200000007
 12.2897982700000004 19.6395258199999994 31.5103918999999983
 10.1567352100000008  9.2487497300000001  8.7366700799999997
 12.2139873300000001  5.4851270000000003 33.5294559900000024
 29.5667743799999982 33.7770000499999981 25.0399022299999992
  5.6368077500000000 27.8279371500000003 34.1396458600000017
 30.0279398999999998 14.5858339600000004  4.1113504000000001
  9.4662034300000002 23.4809689599999984 19.6453317399999996
 24.0905029999999982  9.0838387899999997  2.0785160700000000
  3.6195074699999998  3.0621107500000000 14.8953679900000004
 26.4497721500000011  6.3204545999999997  2.8805396299999999
  8.2296399800000000 30.5592006199999986 18.4848450500000006
 14.7908163699999999 19.2506495499999986  5.6669653000000002
  9.6858764100000005  5.5248045699999997  0.3904318900000000
 16.9888218600000016  1.1289529199999999  4.3116956599999998
 16.6689522100000005 15.0798435600000005 11.9307566000000005
  5.2262557400000000 22.6801698199999997  0.6142067400000000
 32.9727572299999991 18.1307808399999999 14.0336072999999999
 32.8378897699999968 26.4133795499999984 24.6700136599999986
 18.9196140100000001  6.9527128200000003 24.2443012700000011
  3.9714819399999999  3.6969224900000000  9.1762776800000001
 15.6989432499999992 22.1392844900000014  9.9543955999999998
  3.5268744900000000 21.1795354600000003 14.4524260800000004
  1.9251165699999999 15.4342104300000003 17.7747143700000017
 14.6244191699999995 22.6129162400000006 25.2833131400000006
  1.6439038300000000 14.0916538599999992 28.4264364900000004
 13.1180893199999993 10.7271262200000006  5.8104049399999997
  5.4757788500000002 16.4152105000000006 20.4428671400000006
 23.2680145899999999 10.5212909700000008 11.3372670200000005
  5.4467885300000001 19.1748092899999989 26.0197791500000015
 24.4281100600000016 13.2457317299999993 21.0131256600000000
 17.6029503500000004 32.7866061900000005  4.4902458599999999
  7.5622444700000004 13.6428155800000006  9.8013975999999996
 22.0893947600000011 11.4576982300000001 34.5342205899999968
 11.6455037499999996  5.9814933600000000 10.9589387800000004
 16.8840870099999982 25.8503888099999983 12.4847056700000003
  5.4481649100000000  7.3076002300000003  3.8370833100000001
 19.8591880299999985 13.3731644599999999 27.7751066800000004
 21.2179396099999984 29.9109821599999997  8.8771293999999994
 27.9137960400000011  7.1699926800000000  1.0669382500000000
 12.0311346100000005 12.2794698600000007 21.0499121400000000
  5.8732866000000001 12.3279437699999992 30.7509250899999991
 20.7979806099999998  6.6601075900000000  6.4282511600000003
 29.6171685700000005  5.7521597699999996  6.5492073800000004
 32.5284797899999987  6.1597851800000001 32.5094569999999976
  1.4437962600000001 10.8837969999999995 13.9761416900000004
 12.0133256799999995 27.9647124900000001 22.9227385699999999
 17.4671574900000017 25.5158612600000012 25.0802753100000011
 19.1871705199999987 23.7749773799999993 26.0447759999999988
 24.5502728700000006  1.4361048599999999 21.6143645900000010
  7.6256459699999999 29.2317521499999984  3.0584611100000001
 23.5558076000000014 17.4583106699999995 16.8274849199999998
 19.5390830000000015 23.3680602399999984 11.9883948999999994
 28.9530332100000010  8.6291250700000006 24.7050848099999989
 13.3603842700000008 22.9784457599999996  8.7379033699999997
 32.9420089199999993 26.3439573500000002 12.8912096999999992
 12.5614216600000006 34.8137776200000033 20.1605043799999990
  2.5971825800000001  5.8475921399999997  0.4810580400000000
  0.1424457400000000 14.0855346899999994 30.5815267999999989
  8.7209018300000007 27.1971192799999990  1.9838226400000001
 22.1070482699999999 28.1603266000000012 20.6092234999999988
 19.2192970500000015  3.7255451000000002  0.2364298700000000
 18.6768682300000002 22.1244112699999995  4.9802788500000004
 18.5466485799999994  3.5227059299999999 21.1185430899999993
  4.3536804499999997 22.3072790199999993 33.4384929300000024
  5.7506158100000002 15.5999409399999998  3.2073565400000001
  6.0414088799999996  2.9590489700000000 32.7360877300000013
 30.4264238499999990 26.9057286100000006  4.5807827400000001
 24.2155924999999996 11.4630992400000000 20.3089905600000016
 13.2043053100000005 24.7593982299999986 16.2060634599999993
  5.3085910500000004  6.4897500700000004 13.2294386799999995
 27.1759394500000013 31.0144086399999992  4.1660846700000000
 19.3851203599999984 25.7179043999999983 25.8192186399999990
 13.6076612099999998 13.9619768900000008 18.9455427500000013
 22.7369666600000002 10.1986175699999997 13.1654709600000004
  2.0703726499999999  6.7530966899999996 29.2960423399999996
 33.5835929699999980 29.4469639900000004 15.1238400100000003
 16.3791160100000006  8.8027504000000008  2.8259914099999999
  1.4375532300000000 10.9570730800000007 20.5273081200000007
  7.4676148700000002 33.2030385500000023  3.4688563499999998
 26.0687103200000010  6.8143045700000000  8.0168707999999995
 24.5474721100000011 24.3638199700000015 17.7222434000000000
  7.7449047699999998  3.6145386700000000 24.5515028099999988
 22.1076983200000008  4.0857424299999998 34.0730266500000027
 30.3589482599999982 12.8434569300000003 14.9806763299999997
 25.2270025900000014  0.2325312900000000 23.1534091000000011
  9.3467863500000004 11.4381169299999996 20.4311669900000012
  1.6236780099999999 24.1563182300000001 30.2404864999999994
 16.8565970900000011 18.8273319900000011 30.9687937700000013
  7.5169049899999996 21.6221115399999988 32.8286076999999992
 10.4096175899999999 24.4428660600000001 16.2497948100000009
  5.3013201700000003 24.2880769500000007  4.7092814100000000
 13.8926806000000003  9.2827933700000003 20.9082435099999984
  4.8486708600000004 11.6110928700000002 22.6378886000000001
 24.9937697900000018  0.2889316900000000 26.0749187199999994
  6.1589422699999998 18.3427112100000009  5.9473446699999997
 32.0219321000000008 32.6128430899999984 24.0538687899999992
 23.3727644199999993 21.0515902399999995 34.0772126399999991
 30.7127642399999985  9.4285459399999993 20.5716438000000004
 17.6174060099999998 30.7428176300000011 24.5358437900000013
  3.9266617099999999 20.4034028099999993 24.9910462299999985
 24.5139457699999994 20.8865601500000011 25.4164081300000007
 33.5713653600000015 33.9376598200000004 30.2485485700000005
 12.3558585599999997  9.9148786100000006  4.3648611500000003
  0.2214180900000000 11.3738587800000008 25.4445675999999992
 16.8477237500000001  9.6930091300000001 20.4044330699999996
  7.3065360300000002 20.9510120600000000 23.6596771600000011
 13.1940328200000003 27.1096141000000017  1.2842473299999999
 24.3449153900000006 14.9930174600000008 22.6444538599999987
 30.3359499200000009 11.3102709200000007  6.7233223899999999
 18.8794006400000001 31.0865207800000007 26.1547715600000004
 18.2456784100000000 20.1170846400000016  7.8415858399999996
 18.5332680799999991 23.6366419500000013 11.0412331500000001
  0.0055728700000000 23.6632871999999992  3.8679605000000001
 13.8121939999999999 21.5445643300000000 24.4926519300000010
 13.0010553000000009  3.7364623799999999  8.7231527199999999
 30.0277925600000017 12.1095707299999997  0.5551819000000000
 20.9422609199999989 16.5792283800000000 12.0914145299999998
 10.4039487899999994 34.1672685200000004  4.2820989300000001
  9.2367007700000006 16.2298350700000000 19.8380502000000014
  8.1096498399999994  8.8849446499999996 19.2647687500000018
 32.9683119000000033 13.4180293800000001 11.8197230100000006
 29.0846991599999996 16.5387507000000014 31.7830144300000015
  7.1235579600000003 25.6386137100000013 23.1806319899999984
 11.8818899699999996 23.9247960100000014 24.0464674000000009
  3.9775165200000000  0.1201722000000000 24.7342489500000013
 13.5221734599999994 12.1694028900000006 26.1544502600000008
 12.8455618900000008 15.3586437399999998  7.7253244900000002
 24.5287422200000016 24.5704999300000004 26.3922586300000006
 19.6908310399999991 18.7972952299999996 16.1408972999999989
 30.0609237900000004  8.9461171000000004 32.3900887699999984
 25.2218912300000007 19.3259195300000002 10.7295883500000002
 12.1913932299999992 10.7460512700000006  8.8836780700000002
 32.9773965500000017 26.1037629500000001  0.9438983800000000
  9.1001471699999996 31.1734637399999990 17.4051016800000014
 32.5439187599999968 20.6425883900000002 19.9830763900000008
 30.5648532599999996  8.4887110400000001  9.7665079099999996
 30.6984823400000018 14.3926268000000004 11.8786246700000007
  4.0448860099999999 12.3992056500000007  3.4493269500000001
 12.8381012299999995 29.9674120899999998 12.2949873600000004
  1.8524760000000000 19.5641205700000000 24.1744825100000007
 20.5275853899999987 12.1275916499999994 23.4328547500000006
 15.9897977200000003 10.5302601800000009 22.0828045199999998
  5.6955942700000000  0.8528585400000001 18.9935377000000010
 24.3882066399999999  7.5890058600000003  8.4215176899999999
  0.4477595100000000  0.4940805500000000  9.0117926900000001
 16.1997648599999984  4.4480638900000002 33.6097242000000023
 13.6347101700000000 13.5737750699999999  4.4375945899999998
 32.6523207700000029 22.5551800299999989 34.9108067399999982
  5.9288578300000001  1.3136246199999999 28.0890685900000001
 12.9757413699999997 33.2851290799999973 18.1643882000000012
 18.8725379800000006 20.7457951399999985  4.5789010599999997
 27.5900952199999985 26.7303694000000007 32.3185858699999997
 13.4727171699999992 20.9574117700000002 26.2196221399999985
 23.1893760899999997 18.8440040499999988 31.1760575700000011
 25.9996611199999990  1.3045006500000000 14.7423590000000004
  9.8276683600000005  8.6221950799999991 13.2327835700000005
 13.3934150899999995 18.1273529999999994 26.4218639800000012
 27.2679877099999999  3.0694511900000001 33.2661441500000024
 14.0847222399999996 16.9267429599999986  7.7688616300000000
 21.2574057799999991 28.2189038200000013 25.1164267000000017
 31.7835521900000018 16.1616448400000010 28.7648061400000010
 30.0968358699999996 17.5204884700000001 11.8497405100000002
  8.5888187299999998 12.2764364199999996  5.0668296599999998
  3.2061192200000002 20.2457283299999986 34.9560401199999973
 31.1663236400000017  2.4013860999999999  5.0961836099999998
  6.5580147899999996  5.5545105000000001  9.6579669300000006
 26.4501499200000012 12.6697140600000004 34.8842375999999987
 14.3813505399999997 32.3584754999999973 18.8977042399999995
 23.7151128200000016 34.9012227899999985 19.8514954800000005
 24.0845574499999984 14.1570300099999997  7.2033266999999999
  1.3119075700000000 34.2304667699999996 16.4549427199999982
 23.2223066100000004 12.3071896100000000 31.9358300300000018
 20.4952923200000008 29.3780794900000011 12.3820272399999993
 29.7318257400000014  7.7952739800000002 10.1697745499999996
 18.4007851400000000  1.9958079799999999 13.5447621100000006
  6.8167144400000002 13.5196622000000009  4.9625369800000003
  0.3590840400000000 15.1254696800000001  8.7689431100000004
 29.6268482199999994 28.4379975300000005 32.4244937400000026
  8.4663358899999999 18.7073127499999998  8.8053114600000004
 10.8696918500000006 21.9109166600000016 21.7762409900000016
 33.2823646699999998  6.7029514399999996 26.5047813699999999
 20.8604512699999987  6.6044841999999999 16.5660169400000008
  0.0467530400000000 15.7783131700000006 26.1094104700000003
 25.8617525800000010 28.4755470200000005 33.5188056100000011
 25.5658133399999983 24.6247278600000001 27.8012120899999999
  4.9715179500000000 11.3021199699999997  9.7303592099999996
 18.1472979499999987 11.6366858600000000 32.7793302099999977
 22.2028348700000002 28.0456180900000014 17.7032520700000013
  3.5575871000000001 12.3664677399999992 13.2233625099999994
 30.0536384400000003 26.5012004200000000 30.6754760100000006
 12.7252185499999992 22.7482040800000007 24.0660084199999993
 17.4034326499999992  4.4925677999999998 11.5869477700000001
  1.8312117299999999 12.1755119100000009 23.8287059700000015
 19.0612789099999986  7.9146002099999997 20.6857802000000000
 10.9078610299999994 33.4203259399999979 15.4180457200000003
 26.0943972700000018 18.5349118299999986 16.2631384600000004
 19.5680444199999997 20.1225221800000007 29.2302170799999992
 12.2584826600000003 18.3179931799999984 10.5114552499999991
 21.0283433299999984 28.3664281100000011 19.5571662999999987
 12.2940361100000004 20.8649645399999990 12.4589464200000002
 27.5124355499999993 16.5043454599999997 13.5341870100000001
  4.0810033900000002 24.4239101699999992 12.6582594999999998
 17.3673716400000018 28.4150887400000016 32.3965141999999986
 28.2140865900000009 14.1533019499999995 14.5459231300000003
 33.3299896099999984  2.1353192700000001 13.3110221600000003
 33.3494552100000021 14.2937940300000008 30.7963169100000016
 13.6982511599999999 31.5072179500000011 26.8121632100000014
  7.0270769700000004 14.0825621200000004 15.6215464399999995
 16.3310894699999984  6.6206477899999996  8.2274333599999991
 28.4725020099999995 17.3412378499999988  9.1846105900000001
 15.7502558799999992  9.5505488199999995  6.0740112799999997
 25.9076182300000006 29.3395787400000003 30.2999299899999990
  0.9233515600000000 13.7696256300000002  6.0978793800000002
  7.0587010899999996 20.5891817800000005 32.3781947700000003
  0.3195153900000000 15.0951206800000008 23.6932312600000010
 17.1377833799999983 19.7253116599999991  3.3130161800000000
 31.8629075499999992 19.8871576499999989 28.4585946999999990
 28.6011631999999985  9.7498853499999996 31.3231224499999996
 12.7190613399999997 24.2639582900000015 19.3469075199999985
 13.4746556000000002 18.5367086699999994 11.4625929899999992
 11.8003966899999995 19.2671697100000010  3.3212674600000001
 30.5421402399999984 11.7510936600000004 30.6311497599999996
  2.7340287800000000 30.8217017200000001 20.3408752499999999
 24.0904046799999989  7.4315357100000003 21.8206832800000008