Na Cl 
 1.0000000000000000
    35.0000000000000000    0.0000000000000000    0.0000000000000000
     0.0000000000000000   35.0000000000000000    0.0000000000000000
     0.0000000000000000    0.0000000000000000   35.0000000000000000
 2500 2500
Cartesian
 18.6952024399999992 15.2674305700000001 14.7055447299999997
 21.0902935300000003 19.5633500600000012 11.2245023499999999
  0.2110564200000000 12.2251684199999993 18.4055663000000003
 12.3527412999999999 27.5230105400000014 19.2381390600000017
  5.4031809400000004 21.2619769299999994  0.0463402600000000
  8.8406672700000009 10.0947998999999999 18.3019193999999992
 20.3593541400000007 19.6650377799999987  5.2898887300000004
  7.1599076100000003  6.5672677500000001 21.0690461099999986
 12.4579777000000007 11.2312787099999998  9.1013601699999995
 16.5604512899999996 11.5048136900000006 21.4037578199999992
  2.9577371000000001 10.6874837199999995  4.5389111599999996
 20.4799343200000017 16.2561253699999995  6.6990101900000001
 30.2641920199999994 30.2752987800000000  6.9466495500000001
 27.3389472100000006  5.6857610400000000 10.5858450699999995
 11.2980327900000006 11.0370640000000009 34.9347192800000030
 22.8269285099999983 17.1874169899999991 13.9173102699999998
  3.2337466300000002 29.5795989299999995  4.3192791699999997
  4.1250148600000003 29.1248265099999983 25.9591775399999989
 20.8969404499999989 24.8781923899999988 17.7795813400000000
 26.4235566800000008 20.7170747599999991 11.8754852399999997
 21.2804827600000017 31.0737679399999998 21.8177533100000005
 30.9799398299999993 19.8486839199999991 11.8306616600000005
  2.9305349600000001  8.5010839800000007  7.7183827999999997
 12.8597643200000000  9.0589147000000008  3.1794191100000000
 26.4969764099999985 29.6825978500000005 20.4220387099999989
 23.2046527699999992 30.5990827900000006 23.7843754300000008
  8.9977734799999993 25.5789354099999997  0.1674699600000000
 14.6676140900000007 13.5900201599999999 32.4688995500000033
 19.7948173800000014 16.4956751299999986  7.8118480799999999
  8.7307615799999994 17.9098053600000000 10.0986733700000002
 13.4032633099999998  8.6463755700000000 34.6341471100000007
 11.1105050300000006  9.2579857099999998 23.9657780000000002
 12.8308645299999995 13.3401553400000008 32.9907908500000033
  6.2218396499999997 25.4589378300000000 13.3680312099999998
 11.5006164299999991 20.8603871900000009  5.5274192700000002
  9.3356126800000006 33.6423125600000006  1.3471578600000000
 31.6821978100000017 27.6985300999999993 29.1954635799999984
 23.1564701900000003 25.7944421000000013 17.1883884900000012
 30.2453079299999992 27.8903939500000000 33.8511879899999997
 11.9165084199999995 10.7570831200000008 19.2960790799999984
 34.2010934999999989 12.7784484900000006  7.3837612000000004
 23.8745247700000007 19.1377822199999983 33.7057926900000027
 18.2577725499999985 13.3832339900000008 22.0137286299999992
 34.7371046000000021 26.5169524999999986 15.4206125099999998
 34.2345185799999996 14.5538251800000005 26.1398758099999995
 12.8927262599999999  3.0502236599999999 25.1091354600000010
 14.2397493399999995 32.4670788900000034 24.1948875299999990
 13.4747035700000009 19.3428638299999989 15.5124606800000002
  2.9266093899999999 12.5240084800000009  1.0105571000000000
  9.4331279699999993 27.5817868299999986 27.0913107800000006
  8.6603119799999995 23.8634481100000002  7.9723670999999996
 11.5738095399999992 26.0170120099999984 12.9209281600000008
 22.0396034199999988 14.6146735600000000 33.8185124099999967
 22.7380252399999989 27.9901854099999987 31.0461899899999985
 13.3152387799999996 34.2182462900000033 21.0653428600000012
 20.2174848199999992 15.2673351400000001 13.1017260100000001
 15.7090582899999998 17.1426992499999997 32.3462179400000025
 22.8849297299999996 12.0139101299999993  2.7875885399999998
 21.0006370599999990 17.7070444699999996 32.2964383899999987
 26.2399513300000002 14.8619309099999999 24.4727881799999984
 29.1509174299999998  9.4692384000000001  4.4898001900000004
  0.0718221100000000 17.1142284599999996  8.8376577800000007
 29.5143841199999990 28.2539519800000001 19.1709656399999986
 31.4194402699999991 21.5325966199999996 33.3513227099999980
 10.6807044399999995 30.5995752000000003 32.0604087299999989
 14.2895344200000007 29.2049171600000008  7.0427230700000001
 32.0466517799999977 28.0763987300000011 10.0335386399999997
  3.6839933700000000  1.8765090799999999  3.4881251899999999
 34.9201136200000022 22.3495304799999985  8.5587466200000009
 31.8544011199999986 16.9196615699999988 28.7520903499999996
 26.3824444299999996 29.7434856200000013 28.7627470199999991
 30.4891397200000007 30.9712756200000001 14.2293400200000004
 32.5177118100000015  0.1824702300000000 21.7772339600000002
 14.9711188199999992  4.5939432199999999  0.4036970000000000
 29.9355115299999994  1.1423609800000001 19.6609632999999988
  6.8102533999999997  9.9289452499999999 30.7828063100000016
 31.6257343999999989 23.7180344599999984 14.0051940100000003
 10.2957296899999999  0.3289138600000000 33.0552401500000030
  4.4212810100000004  3.4699916800000001 10.1501812099999995
  4.0955764200000004 24.3529145100000015  9.4341146800000004
  9.1653545800000007  7.1144299200000001 12.2236973100000004
 28.6807353200000001 17.1185730499999984 11.8572916599999996
 30.5008704600000016 18.1297655300000002 31.9693048200000014
 23.1061339399999994 19.7930783800000007 22.2683730500000010
  9.5458500199999996 32.1012105000000005  0.0448918600000000
 19.4974109300000009 22.9854925700000017 22.1736841399999989
 28.1092674600000016  2.4582823999999999 16.3523460400000005
 13.8799648300000005  5.5689497799999996  7.3388858199999998
  4.6540499200000003 30.6169230900000002  8.6264344299999998
 14.4834232000000007 32.8936474200000006 18.5321908099999995
  5.5308845099999999 32.5760091100000011 34.9850472199999984
 28.6885915300000001  9.1579140700000004 22.0617670100000005
  2.1180752500000000  3.4907072600000002  8.3169007100000005
 27.1502059899999999 18.5120253599999991 16.6101593899999997
  6.9489140000000003 30.3975243599999985 31.1918998599999995
 12.2609610199999999 24.9718087100000012 16.1890223300000002
 33.8983426300000019 34.4445563600000000  9.6588108500000001
  5.6338789299999998 13.6031659200000004  8.4096516599999998
 11.0154353999999994 21.4228375699999987  8.6310866399999995
 22.6730783400000000 21.4276032500000007 18.7277931700000018
  3.0198710100000001  4.9720648799999996 20.4944254599999987
 14.8086670100000006  4.2663756800000003 24.9761339100000015
 18.8826879199999986 16.3359528000000012 18.3587004900000004
 29.6791554200000007 32.5651343800000035 27.2135371200000016
 32.9184366699999984 15.1651234099999996 10.2291697799999994
  1.6564538200000001 15.0194273999999997 11.5162820299999993
  4.1520886600000004 29.1540832300000012 27.6768489399999993
 14.8001804499999992  1.6327916600000001  2.3293606900000001
 19.5650405999999997  4.6374315800000003 31.3125092500000015
  9.3429184900000006 16.4310025099999990  5.8591148100000003
 19.1426479000000000 10.4832902899999993  2.6599468499999999
 10.7266902300000009 33.4826928000000024 13.6178072300000004
  9.4861191199999997  8.2040991900000009 21.2951341399999983
 32.3195197699999994 29.1687746399999988 29.5953554799999985
 24.1394705599999995 27.0817031899999989 22.1854874600000009
 16.4878100799999991 15.6240408399999993 23.2544451499999987
 27.4596385299999994  4.1447290499999996 10.4611737100000006
 15.9465388699999995 18.4788305500000014 18.7050396899999996
  5.6021030100000004  4.5452281499999998 21.6494465399999996
  2.2480271200000002 17.5918589599999997 21.3735647399999991
 20.5026458699999985 12.9690896799999997 26.4903356899999984
 23.0718806600000015  4.0983083000000002  0.2676011200000000
 17.5719916000000005  2.4628899000000000 23.7906306000000001
  9.1285699800000000 18.8755948099999991  2.1219570100000000
 33.7314779299999969 29.9496179100000006 28.2281302300000014
  5.1847418699999999 24.9565719799999997  5.1053286800000004
 20.2591806400000003 16.0490084999999993 25.6859431299999983
 13.6462293700000004 32.1770193500000019 14.1642285399999999
 23.1890559699999983 13.4636099700000003  7.8928427900000004
  5.0088116999999999  8.0983072299999996 28.2496552500000000
 16.9558433899999983  6.8598861099999997  4.1058781000000000
 22.4932945900000014  9.8021805600000000  0.2486520300000000
 14.0946821500000006  9.3229593200000007 30.9773198399999998
 10.8144781800000001  3.9348308300000001 17.7017900499999996
 13.9853311999999992 26.4614793500000012 28.0833998200000003
 22.7006916799999985 30.5250783699999992  4.9921413599999998
  7.9198053399999999  3.1682705400000000 14.1230133500000008
 30.4853696300000010  2.6074248199999999  2.9889753200000002
 10.7081563899999992  1.9843915999999999 31.6696975499999986
 27.6067693299999988 26.9721474999999984  0.8829877200000000
  0.3745771600000000 30.5182448499999985 30.1411899000000005
 27.9787168299999998 13.2937503199999991 23.0615538800000017
  5.5360869099999999 15.0127543200000009  4.3618278400000001
 19.2405270000000002 10.5372720799999993 34.9318423799999991
  9.4748757200000000 29.2361786300000013  7.4542837500000001
 19.1469610299999999 12.9739789999999999  3.6650215300000002
 33.0168032300000007 23.4118659300000012 13.2307603999999994
 14.3899929100000001  2.6107626800000001 24.0883901700000003
  8.5735665999999995  0.9338856000000000 15.8153248400000006
 18.1645397600000003 21.4197472500000003 26.6920131500000011
 17.6650892699999993 27.1552816899999989 33.8192937600000008
  0.8701641400000000 29.8487334100000012 12.6624873200000003
 18.4243477599999999 13.0127534699999998 25.3476542900000013
 33.0255926700000018 31.1360335799999994 18.3164534699999990
 19.6334087599999982 33.7010921899999971  9.2564837799999999
 33.7229587799999990 26.7681880300000010  2.9361869800000000
 33.4945408900000032  2.7488161199999999 34.3525185900000025
  2.7799007400000000 31.7917416199999998 13.8013400399999995
 14.1220320400000006 13.9924703699999995  6.4495813200000001
  3.1132476100000002 34.3526475099999971  4.9466310699999996
 13.0283890499999995  8.1347897299999996 11.4110550499999999
 20.6021479300000010  5.3003162499999998  7.4152465899999997
 28.0495124999999987 13.1565869400000004 27.7566302699999987
 25.6849428000000017 31.8336620600000018 18.3582191399999992
 21.5891157800000002  3.2689086700000001 25.5480373400000005
  5.8635687200000000 23.9994828300000016 19.3078542900000016
 22.1071190699999995 29.3502477900000009 34.6145327799999976
 31.4524835799999991 16.8916027399999997 12.1672060200000001
 24.2315575599999988 34.7878605200000024  4.5718315100000000
 13.7721919800000006 14.2306047699999993 18.7744046500000010
 16.4188896600000014 12.2785019399999999  4.7821775200000003
 14.0576079800000002 16.2173356200000001 19.7597116499999998
 21.4736404199999988 22.4745897499999998 10.4298800499999995
 14.9939804199999998  3.8289159000000001 22.5895626999999983
 17.7802509200000003  2.6771321700000001 19.5603347599999999
 30.5462960899999985 11.5984261499999999 19.7482790799999997
  4.3265704100000004 21.6688177199999998 12.8193924599999995
 30.5290961500000009  2.5190727599999998 23.0558170300000000
 14.1168611700000000 32.0857660200000012 20.4695026899999988
 15.9317578100000006 15.0534740100000004 23.7377094399999997
 29.6824826500000007 18.4859514900000015 33.3866219100000023
  8.9544781800000006 32.9147401999999971 23.0385824600000007
  4.4554215700000004 17.2703108199999988  7.1139552100000003
  4.2451442999999998 18.1403017099999992 34.0508879400000026
  8.2735529600000000 33.6045268100000030 31.2820592899999994
 22.5705280399999992 12.8648461100000002 24.4686302799999993
 29.2690706499999997  0.2704633700000000 30.6777876899999988
 16.5776243299999990 20.1321942599999986 16.7889546100000011
  1.9600895700000001  8.2254168399999994 29.5808403800000015
 25.1842622200000008 16.8951377200000010  1.5797186400000001
 20.3311334799999983  0.3603727300000000  1.7845552899999999
 33.0207399199999969 19.5757568599999985  9.7455890800000002
 29.1156700499999985 12.0665395600000007 12.3304555300000001
  2.9660086899999998  9.7080243799999995 27.7657881000000017
  4.6005903000000004  7.1212441300000000 21.7500500999999993
 13.0920605900000009 28.2623552400000015 20.4045296000000000
  8.9289815099999998 24.3921830799999988  4.4209947999999999
 33.6596312100000006 12.4217658300000000 32.6183690800000008
 11.9290797400000006 12.0431478500000004  4.1858658100000001
  1.8467429300000000 28.2084449500000005 24.3343339400000005
 12.1504764600000001 23.0578936799999994 14.0190244699999997
 32.7442577600000035 27.7401507800000005 28.7140783500000012
 17.5147478200000002 20.3666907299999984  2.9711681300000001
 26.4227087699999998  6.4662346299999998  3.0055000600000001
  8.4394308799999997 21.5148018299999997 14.2743304299999991
 18.6715346699999998  2.4831343700000001 14.0393340599999998
 24.0875572200000008 29.5741877200000012 18.3730334500000012
 25.5732750799999984 10.0343123500000004 16.6876624199999988
 14.5422647099999995  6.8430586800000004  1.2873070600000001
  5.7698355499999998 23.6260144700000012  7.4251338200000001
 19.2240326199999991 13.3163159899999997 17.3229080300000007
 16.1152765699999989 19.4532653700000004 16.0310123400000002
  3.2243592099999998 11.8051992000000006 29.9829420499999983
 28.3071022499999998  2.4675875000000000 32.7431610900000010
  9.3084250599999994 31.6999781399999989 11.5325527500000007
 32.6140004599999997  8.5056834800000001 15.0221712099999998
 22.6314802200000003 22.2880978100000000 26.0599731900000009
 34.9694294999999968 11.2016756100000006  1.5620048700000000
  2.6158120600000001  3.9532730500000000 12.6600965599999995
 13.2428679500000008  7.8815808199999999 25.7288929300000007
  0.5035325100000000 27.8709272100000014 21.6735386199999986
 22.1636327299999998 34.1752478000000011 33.3898319500000014
 27.9055155399999997  7.9996161800000003 14.5491073100000001
 16.8465852100000006 25.5575754199999992 26.1701119700000007
 31.0717957799999986 23.6717098899999989  5.4280405900000002
 19.0782565700000006 13.2581927700000008 20.4458278799999995
  3.0291269100000000 20.5359066199999987 11.9825015399999995
 34.9033256299999977 20.1938529200000012  3.0859432999999998
 30.4490249499999983 21.7623172800000013  9.2664496300000003
 26.2188830899999985 10.7680671799999992 28.9050641500000012
  7.4131486200000003 27.7887841000000009  6.0943314199999996
 17.4281458200000010 34.8468281899999965 15.6414062099999995
  0.1141162200000000 27.9513384400000007  8.1451480699999994
 10.5035912099999997 28.8575193100000007 13.3271119500000008
 23.7705486300000004 21.6108780699999983 19.0277801199999992
  4.9005440599999996  8.4439361799999997 27.2353157299999999
 13.9515049700000002 17.9440377200000007 25.4420003399999999
  8.6996586699999998 20.1632408100000013 13.5882936900000004
  3.4519702799999998 22.2645645999999999 15.5371846500000004
 33.4624806799999988 23.9128407799999998 33.1149631299999996
 28.1852657800000017 19.7619730800000006 24.4815418300000012
  1.2735503399999999 19.5605347899999984 33.9081521399999986
 24.3130119899999997  3.7924545699999999  4.7839887799999996
  9.4994843000000007 22.8326756199999998  8.7792141699999995
 27.2525271300000007 23.2234261800000006 31.1237770400000002
 22.3206621799999994 13.3692063399999999 31.2510070999999989
 25.6764116400000013 28.4503509900000005 30.0490307399999992
 19.0596287900000014 15.1809998400000001 32.0643382000000017
 10.3320774899999996 16.2263406799999998 31.1078795799999988
  0.1321331900000000 15.7624480200000008  4.4637967099999996
 18.0313577400000007 23.0295373000000012 27.4334032400000005
 18.2082589299999995 21.2078559499999990  0.4348690300000000
 28.8437832000000007 27.4643236900000005 12.8882563500000007
 32.9243964300000016 10.3307929800000000 29.6376532700000013
  0.0384871200000000 16.8530976899999985 30.0127931200000013
  5.0139209300000003 23.9690350899999984 32.5727173699999994
 14.6608342399999998  4.6410969000000000 22.9155834899999995
  2.2117067399999999  2.1551705000000001 31.9505133000000008
 22.2771113199999995 16.4098996799999988  1.1839866400000001
 19.2633984799999993  9.9382420499999995 12.0341945900000002
 28.7084988500000016 28.7402479200000016  2.3467607199999998
 32.0073457399999981 32.4597698099999974  6.3511390700000003
 28.5944070299999993  1.1989721000000000 26.1240224099999985
 26.4446109299999996 24.5759126200000004 12.3634313299999992
 32.1904260600000001 29.4907605799999999 16.2130825999999999
 18.2792506800000005 24.3662592599999996 23.7194656799999990
  3.0597355899999998  9.9760324199999992 17.1768133499999998
 10.7019601699999996  2.8446482500000001  0.0031507200000000
 17.9542318399999985 21.7744891199999984  3.8386634800000001
 11.4171112099999998 17.3880716000000000 26.3193900800000016
 19.9891073199999987 26.9267442400000014  7.7904232799999997
 33.6440121099999985 29.9115664599999995 18.6975401499999982
 19.5572912599999995 14.3942031700000008  3.3727238100000001
 20.3691308400000004  8.9820865500000000  6.9286688300000003
  5.1370422199999997 28.2685414600000016 19.3763581999999985
 18.4522837200000005 27.5325328800000015  4.2800727600000004
 10.1828767700000000 28.6098891100000010 16.4063014400000000
 10.7083791500000007  5.7283701300000001 26.7167894799999992
 14.0808009900000002 21.0222570399999995 31.0740209500000013
 26.0701327899999988 30.7217495400000011 20.4444453700000004
 14.7933409499999993 26.6813104900000013 12.7853834800000001
 18.9401567799999988  2.2150275499999998 22.9680619700000008
  9.2174996000000000  8.5157597500000008  9.3741972499999999
 17.1331954099999990 12.6151867600000003 28.4438678799999991
 26.0874221499999983  6.3041180099999998  8.3114313800000001
  5.2271511200000003  2.7289474299999998 15.4193820699999993
 13.5544335100000009 29.3639472099999992 19.8607205399999991
  4.1301370100000003 10.2127752500000000  6.1135495700000000
 25.4276488299999990 12.4938147199999996 18.5439611000000006
 28.3541853599999989 23.7933877299999992 20.4675632000000007
 18.3346559199999994 10.5620351400000008 31.1245808500000010
  0.8302668700000000 24.2952764899999991 20.7119938899999987
 31.4813832799999993 12.6087185599999998 24.7328987699999985
 25.8295766600000007 12.6949928399999994  4.7447191499999999
 14.4947991900000002 14.0899309699999993 34.4697702599999971
 13.4288052400000009 17.9296166499999998 28.0670533499999983
 27.9655861299999984  2.6061029900000001 15.7730044100000004
  6.8850442500000000  6.9387821699999996  0.1119689900000000
 26.8628149600000015 18.3310406499999985 19.8001782000000013
  1.5949511599999999 31.3441550100000015 16.2133077900000018
 22.0640437300000016  5.3829163600000003 30.6752525899999995
  8.9702831100000004 18.5482087500000006 29.7445256799999989
 11.2431384199999993 33.4274021900000022 29.3485312799999996
  5.7652443399999997 16.4616528299999985 30.9991136800000007
 27.1036644200000012  6.2878621299999997 15.0987894399999991
 15.3541032400000006  1.4131370700000001 20.5947840599999985
 21.5356389300000011 14.4834192500000007 32.8273580700000025
 24.4071252299999983 10.5538055199999992 32.8093917099999999
  2.4465463399999998 29.1042833399999985 30.6900147300000015
 12.0776151299999999 23.4775178099999984 31.6418786400000016
 15.0543043700000005  2.6935345700000002 15.2355437800000004
  3.7843832300000000  9.1288651699999992 23.8368868099999993
 16.5566167299999982 17.0573238099999998 32.4412468200000035
 10.0352705499999999 32.7921389700000034 27.4796826699999990
 26.0266458500000013 34.8367685799999975 21.5696033100000015
 25.3229055000000010  2.0728106899999998 12.7292269000000005
 20.1165341099999999 33.5887433899999976 11.0101689999999994
  2.9103970399999999 20.0430146700000016 22.9476337800000003
 15.8808630199999996 34.6647716800000012  0.8177056800000000
 23.1793179100000017 24.7960324499999984  1.9174117500000001
 25.9393394599999993  2.4782311899999998  1.6315398100000000
 16.2896148099999998  9.5561085099999996 29.5156948399999983
 15.2831074600000001 33.1870747899999969 15.1660089100000004
 25.1116761699999991 21.9413200500000016  7.7660336399999998
  8.7273956800000008 31.3392430799999993  3.6584169300000000
 27.0133731700000013 28.7628064899999991 31.4886844699999990
 30.3198883200000004 21.3630641600000004 19.0193104200000001
  2.5501963299999999 21.1497158499999998  3.2742786499999998
 10.8012580600000003 26.7441684200000012 19.2387166200000017
 15.1101875999999997 31.9229219600000000 13.5494321400000004
 15.3060412600000006 33.6355260300000012 27.2859261999999987
 24.5616218900000014 17.1790459700000007 13.2255658500000006
 32.0852785399999973 12.2764680300000002  5.5982401299999998
  9.6219341400000005 15.8471053699999995 27.2999977200000004
 16.0617439200000014 29.7301377799999997 14.4256245799999991
  6.4722901400000001 34.7804668100000001 20.3056013100000001
 26.2412114800000005  1.0413774800000000  2.4312386300000002
 16.8276553500000006 22.4034950200000011  5.5408316900000001
 24.7582916699999984 32.6080665300000021 13.7741817399999995
 12.6724849600000002 11.4546956899999994 19.0704959800000005
 22.8259575400000010  0.8684587900000000  1.1868082499999999
 31.6863047100000017 26.7232720499999985 18.0333701200000007
 21.8516225099999986  5.2194422800000000 13.1664174900000006
 17.9787203899999994 13.3535437800000008 13.0102553000000007
 18.3607484800000016 29.0997622100000015 24.7035216700000007
 22.0887105499999983 34.9581399599999969 31.4582792500000004
  9.2994163099999998 20.2899036200000005  7.4101557700000003
 12.4880436300000000 26.5492233000000013 32.7959459599999974
 21.4636949699999988 30.3213430200000005 10.8120547499999997
 33.2041355599999974 21.9063344499999992 14.7630848100000005
  8.1664114600000008 17.8774080399999988 25.5968762599999984
 21.6993594799999983  1.1347907300000000 32.4278739100000024
 30.2768546500000006 33.0961536499999980 27.0543800999999995
 17.9663056999999995 14.6998783500000005 30.8555105099999984
 28.5652193499999996  0.6416382000000000  4.0132525200000000
  5.7350803099999998 34.4946922499999999 12.2925661399999999
 31.1590342400000004 19.8885365400000005 16.6335697700000011
 15.4071454499999998 17.8936499500000004 18.5747662600000005
 21.0964520100000001 18.0689618500000009 25.0417648799999988
  1.9423630599999999 25.2958876900000007  2.9844792099999999
  5.1421350099999996  8.8631550099999998  3.0462546300000000
 28.4015075299999999 14.1370894099999997 22.0616422400000012
  0.0211952700000000  6.2288189999999997  2.7609515999999998
 28.3136104000000017  6.8499416999999996 11.9701624399999993
  2.5201147300000000  5.5682574100000002 30.7023660900000017
  9.6668160699999994  0.1776972400000000 11.5575360299999996
 32.5079854700000013 11.7118432899999991  0.9502415400000001
 10.7095796100000005 25.9044370300000004 10.8731110399999995
  9.3772068999999991 32.7163504099999969 13.7013800299999993
 14.0941191499999992 34.8605658299999988  1.5299432200000000
 23.7557314999999996 17.5793301000000000 20.8010692400000003
 23.5706930899999989 22.6386913900000017  3.4861173399999998
  1.1741789800000000 29.4261700700000013 15.6403730200000002
 17.7493203000000008  7.8262068500000002  5.0585012300000001
  3.2301354000000000  3.8856748799999998 31.5376505700000003
 13.2930996599999993 12.1260029100000004 31.7308481100000002
  5.3642108600000000 31.2919951599999990 14.5627081000000000
  0.4349914300000000 30.9009443600000004 22.1719371199999991
 33.7471953100000022 14.1115725100000002 13.1991467700000005
  8.0597796099999996 10.7158590999999994 26.4439265200000015
 13.0730672699999992 24.0416189699999983 27.4901033000000012
 26.1661154300000014 33.9020598800000030 26.9203490400000014
  5.3063549400000003  3.9075248899999999 13.7707751999999992
 25.4187589000000003  3.0809122400000000 15.8920314400000002
 12.3723728699999995  7.4708424400000002 17.4488169699999993
 32.2668338000000006 18.6756690300000017  1.9694364400000000
 25.3182963399999998 29.6065859899999992  2.8907180900000000
  4.2988888400000000 11.4247012399999992  4.9537034200000001
 26.8934070399999996  7.4920389900000002 23.6992758799999983
 13.7297696200000008  1.2379952999999999 16.9869929100000014
  5.3898702199999997  7.5488509199999996 33.5373393300000018
 22.0621970699999999  9.3460794499999995 34.5572579399999995
 13.8341873199999998  6.1862932300000004 23.0303011799999986
  5.2718967699999997 19.7689957999999990  2.5124645100000000
 16.9910282300000013  3.2115426899999999  6.3979640800000004
 10.5823638300000002 22.7889179700000000  8.3443734500000009
 33.8845480399999985 12.5989326500000001  0.2610835400000000
 13.0310360299999992 17.6226118300000003 13.2370866500000002
 15.7153672699999998 18.1777153100000000 32.8612304600000016
 33.7003165799999991 31.2207657500000018  7.4099607000000001
  9.2094601500000000 13.3967033000000004  3.3923986199999998
  1.0436802599999999  6.1340824999999999 20.5245141199999992
 30.5087340699999992 10.2934675599999998 32.3092337699999987
 31.2919084100000013 13.1046163700000005 29.2873714199999995
 27.8513928200000009  8.3591091199999994  1.5470292400000001
 30.9203636499999988 33.5519229300000035 22.1687034599999997
 14.3989697099999994 13.4839482700000008 34.7185205199999984
 29.1744208500000006 19.4912958299999985 25.2090636100000012
 13.7321429100000003  6.1258297300000004 21.8203544299999983
  4.6969428200000003 16.5179613100000005 32.3756980100000007
 28.3564408800000010 26.7018551200000012  8.0789254300000000
 17.4996921699999994 12.3262807700000003  2.8009256100000002
  0.1566964500000000  8.5971653499999992 12.5581182200000008
 14.2928879900000005 15.5683937100000005 32.9931052399999984
 10.1197166299999992 17.0774771200000011 21.1578993599999983
  0.8145398300000000  4.9708855900000000  0.6741844400000000
 26.0178833800000007 27.5659433699999994  5.8102884399999999
  3.5177777899999998  8.2913728399999993 18.1033603899999989
  8.1780099899999996  2.8138351899999998  7.1280314599999999
 30.8247039899999997  0.7999431800000000  4.6449669399999998
 17.9594035800000000  3.6959853100000002 28.4251617000000003
 26.6926599600000003 28.5359944299999988 34.4583904300000015
 32.1678758799999969  0.4899071300000000  8.8691712900000006
 34.1618889000000010 18.8667158400000012 27.8931307400000001
  9.8483254000000002  5.8049834400000000 19.3566877700000006
  2.8514195800000000  8.8088122999999996 34.7083359399999978
 33.0021769800000015 22.5885032499999987 34.9741651599999983
 20.7938161199999989  6.6675959499999999 27.2851517799999996
 11.5459002300000009 11.9450965900000003  1.2384361800000001
 24.3968819299999993 13.3946173500000008  3.3338253400000002
 31.6024924799999987 18.0910703499999990 11.6193070899999995
 20.6942205699999988 12.7651474900000004 28.8338932499999991
  1.2437845100000000  9.2863330099999999 10.3988241600000002
 18.0376835100000008 24.3466939800000013  9.8856783200000002
  3.5955109200000002 19.7519674000000016 31.3161498899999984
  0.5312734200000000  4.1123970500000002 27.0572596899999986
 31.3635557700000014 27.2818432400000006 25.9392727100000009
  1.3565168100000000 13.9780541899999999  9.1568112100000008
  3.5259505799999999  5.6513927400000004 27.9577269900000012
 10.5174558499999993 16.8804637500000005 34.9543096299999974
  2.0820093300000000 27.3307774099999996  8.3758690399999995
  3.2310115200000000 18.6106755799999988 29.6245304099999984
 24.4825967300000009 19.0032116000000002 11.9773496099999992
 18.3149197100000016 28.8556180699999985 16.3729071600000005
  9.4507167800000005  8.1969411900000004  5.9906511900000003
 24.8745862799999991 27.1716690800000009 29.2422197699999984
  3.9876504800000001 30.4416114799999988  2.1640924899999998
  6.9024960999999996 20.2518882799999993 33.4863049699999991
  4.3276188199999996  4.2894576600000001 27.9148184499999985
 24.3537255500000001 23.0653411499999983 34.1886524700000010
 13.6821236200000005  5.4517190400000004 32.0419722899999968
 19.4281966200000014 14.7005755100000002  7.5725635899999997
 12.0762931899999995  1.2596294400000001 30.5920084099999983
  9.8853910000000003 33.7665236899999996 23.9636162500000012
 11.4982757299999996 16.5201246700000013 33.7354051800000008
 25.9549074600000012 19.1296821900000005  2.5685647299999999
 14.8674254399999999 11.8193278799999995 22.4437117899999983
 16.4639996999999987  0.4429190600000000 24.1406156400000000
 11.3269799899999999  7.5526651500000002 27.6432473300000012
 10.0579445599999993 28.8742587999999998 14.6675948900000002
 13.2673389600000000 34.1658944099999999 16.1873832799999988
  6.3507359200000000 21.8186495799999989 11.0435092699999995
  3.2602788399999998 20.5063968900000013  6.0124506599999998
  6.2582759299999999  7.8434922000000000 15.5734846699999991
 13.5567654900000001 33.5576609499999989 13.6076516400000003
 13.8011841299999993 11.5016853500000007  3.8256221600000000
  2.2316571999999999 22.4625783199999987 18.5538895400000001
 20.2214565600000000 12.0204342799999999  7.4389350500000004
  6.1814168900000004 11.0736579800000001 19.9697518699999996
 16.6197145199999987 27.5419806200000004 23.0682612399999982
 13.2666010100000005 21.7632122599999995 24.3083791600000012
 30.9284937900000010 30.1950865300000011 23.8193650800000007
  2.0689291200000000 17.4917432999999996 18.7296879300000008
 34.8650544699999969  6.9705079000000003  8.3262241600000007
  8.8494582400000006 17.8447163000000018  1.1469354599999999
 26.5442800199999986 19.7143013099999997 28.2621934299999999
 17.6850228099999995 12.1783575200000005  1.6548267500000000
 22.6731540400000000 22.6999752299999997 18.4837005499999982
 30.5551268699999987 20.0172623300000012 10.1280477399999995
 17.0983842999999993 22.5448567500000010  1.4074787799999999
 30.4958668099999990  4.0335103800000001 31.2089484100000014
 18.7958443700000011 26.7562786000000017 12.7744061299999991
  9.4437540299999991 31.1740548799999999 27.3402861399999999
 28.1890770999999987 13.8188488799999991 28.3930466099999990
 11.9343861400000009 31.2277952399999990 20.5545613899999999
 10.5133108199999992 17.2150160899999989 22.7753767600000003
 25.7571555100000005 20.5127273099999989  7.4079493000000003