Na Cl 
 1.0000000000000000
    35.0000000000000000    0.0000000000000000    0.0000000000000000
     0.0000000000000000   35.0000000000000000    0.0000000000000000
     0.0000000000000000    0.0000000000000000   35.0000000000000000
 Na  Cl 
 500 500
Cartesian
 27.4068363499999990 26.6985530000000004 22.5802235499999995
  0.8172108800000000 14.8632918499999995 12.3461741099999998
 22.1482335900000002 20.3619122200000007 27.6586103200000011
 23.2637190999999994  8.3269868599999999 21.6682293199999982
  2.9302270600000000  3.3261320900000002  7.3021067799999999
 16.5086225199999994 15.4186842800000008  1.8266974400000000
  6.3037925499999998  2.8414645100000002 16.4939510399999989
 13.8351854799999998 22.9624287900000006 19.5406975799999998
 15.5042347100000004  4.6727789900000003 30.3965469900000009
 14.7652899499999997 10.2281830899999999 20.0731600000000014
  4.6001308400000003 34.3990829700000020 15.3875560599999996
  3.6547305799999998  0.0569383500000000 11.9628835700000007
 20.1842193700000010 16.1750334900000006  8.7878315800000006
 32.0854383100000007 14.9617344600000006 21.8710410000000017
 16.5860058700000010 21.0006189700000014 17.4029900300000016
 32.0533690199999981  0.9731840500000000 11.3043056800000006
 11.4656147199999996 27.5865285799999995  1.7858984700000000
 20.5955498599999984 34.4064553600000025 34.2952211500000033
 19.7819472999999988 10.1883292799999996 15.2502555199999996
  6.0444716400000003 19.4349187900000011 22.6800855400000003
 34.1977513000000002 26.6061701399999997  9.9015433700000006
 25.2394811300000015 34.9594267299999970 18.0850419600000016
 15.3001480799999996  4.5888315999999998 19.4927024799999984
 13.8505294200000009  0.8479874400000000  7.1248237699999999
 11.9131115300000001 23.6655194400000006  6.3852659500000000
  7.1649048400000002 20.5555972699999998 27.9233040300000006
 26.9708742000000008 14.4827592700000007 21.7351231799999987
  7.2153678100000000 28.6867117200000017 12.5639179300000006
  6.7686344399999996 10.4390923999999998 29.8259000999999984
 13.9030448300000007  8.4744896399999998 15.7473906600000007
 31.3948987700000011 29.0635663800000010 11.3601521900000009
  5.0778537600000000 13.4881329099999991  0.0498748200000000
 33.2460578900000030 26.4949886100000001 31.2735884099999986
 20.2004578700000010  9.0953996700000008 21.3821812599999994
 25.3204912899999997 31.4971557900000008 32.6973544200000035
  9.4357203999999992  1.1527889099999999 19.9231503600000011
  3.3880627799999998 33.1711430000000007 27.4003243099999985
 22.2507312199999987 28.0396243799999993 21.9670010500000004
 19.3866590400000014 16.5784198099999998 33.5018243399999989
 20.1616838200000004 22.4198889000000001  1.0727790300000000
  5.1971668400000004 23.7830827700000000 22.2721246099999988
  2.5982504500000001 23.7952960500000010 17.5406505300000006
  0.7134896700000000 21.6208161600000004 11.0572136899999993
 23.5905609299999988  6.5575839100000000 33.3128101599999979
 28.4002869999999987 28.6235494700000004  0.9958959500000000
  8.0232963099999992 27.5410370899999997  7.2103153200000003
 13.7695095700000003  4.1472742399999998 18.2380732300000012
 32.2967044999999970 30.7125648300000016  6.0770989699999998
  7.8023161999999999 23.5283090399999999 10.2900747100000007
 10.2856029699999993  5.1290963700000001 34.7226243599999975
 28.1476652899999991 17.8105563899999986 22.0211958900000013
 20.2392750300000017 31.4954365600000017  3.8023208500000001
 30.6065179500000006  8.7471916200000006 14.0495876600000003
 21.4198646799999999 28.6656278200000010  8.2068142700000006
 31.9274062200000017 18.9163115499999996 21.4482585599999993
 15.8815457000000002 11.1385812099999999 26.1343240299999984
 24.5838953199999999  6.5286881599999997  2.6619836800000001
  9.9596598200000006 22.0026093500000002 22.8553810300000002
  5.3889095500000002 26.4027380799999989 20.8188884600000002
  8.0582958199999997 20.7779160900000015 19.4357871399999986
  2.2744250199999998  6.2612581000000000 22.9648131599999985
 24.6147996000000013  0.9369540400000000 32.3865198299999975
  0.2387971600000000 23.4638990300000003 12.7510615099999995
  2.0908015700000000  0.1020598000000000  0.3190467300000000
  7.2184670000000004 10.7747992700000008  2.0513932499999998
  2.7662906000000000 13.0461036400000001 25.8638073000000013
 28.0092839799999993  2.0359205000000000 22.7159190899999999
  6.4520881100000000 10.2447847200000002 19.0968028499999996
  9.9654971499999991 15.1105699199999997  3.3486059199999998
  0.0196313300000000 14.9437230499999991 34.1533391399999999
 15.1708587099999992  1.6223728399999999  2.2202965500000000
  6.5240562500000001 29.8133625799999997 13.1848223299999994
 12.3089216300000004 26.0458930899999999  8.3252240099999995
 27.0399040900000003 19.6679645299999990 19.4798717500000009
  8.2044335200000003 26.9141150799999984  5.5322060999999998
 19.7878711699999990  4.7508205800000001 12.0414068099999998
  9.9243233699999998 23.1029217399999993  0.8056092800000000
 29.8750932700000007  0.6925503500000000 19.6936827600000015
 31.7261370999999990 31.1862418099999985 22.1661526199999983
  6.5270189399999996  9.6073456400000001 15.6581481799999995
  1.4965093700000001 21.8329842700000007  6.9666647599999996
 13.7346508200000006 13.2762675199999993  9.2282681400000008
 14.5026620000000008  6.2402107700000000 19.2223925400000013
 20.7514521400000014 29.6561783900000009 31.3902395500000004
 20.7561243799999993  3.1824848100000001  8.0221523599999998
  8.3146609700000003 24.5068959900000003  7.4009254100000001
 32.3534391099999965  4.2511379299999996 13.8751831200000009
 30.2027030799999991 11.8306695000000008  3.0622918900000000
 17.9397473699999992 23.3339819599999991 34.2347352500000000
 18.1953565399999988 14.3573209399999993 13.4930903900000008
 13.3701063300000005 11.3770309699999999  8.7595559299999994
 11.8565573299999993 18.1589991899999994 33.2993752900000004
 12.6004161400000001 25.1940959299999996  7.1703688899999998
  7.3899011000000003 22.0678644199999994 34.5972978400000031
 21.7847437500000005  1.1882280800000000 20.5493741599999993
 28.3315878499999982 28.9970621100000017 13.6228650200000008
 24.4923462299999990  7.8630830200000004 29.8362353300000009
 12.6071582899999992 33.5094354800000005  8.0820458199999994
 34.9441534400000009  6.3869391899999997  0.2869279100000000
 27.3974648199999997  9.1912281100000008 21.9709068199999997
 15.0309181800000005 29.6418047300000005 34.8121343500000009
 27.5419516400000006 22.5812262799999992 17.6700448600000009
  5.4440120600000004  7.5106695600000002 21.8233096300000007
 19.3649213399999987  1.2328980500000000  1.3175984100000000
 24.8764080900000017 22.7907735299999992  4.5307722799999999
 23.6896741099999986 27.3527355900000018 27.4270201200000017
 15.9271674799999996  7.9039042100000003 15.9181088899999992
 30.6561733899999993  3.3062469600000002 23.0925820299999991
  2.0261670100000000 33.7889365500000025 15.6566690600000005
 11.6369083199999999  1.5181042000000000 34.7772976799999967
  2.0421104899999998 21.7510238800000018 29.4584074600000001
 32.4541644700000020 17.1421974100000014 23.9118571899999992
 16.5837146599999983 17.4922603800000012 27.4201666199999998
  5.7403865300000003 18.6763264800000002 13.0192132800000007
 28.9175530899999984  7.3148068799999999 19.9592261899999990
 14.7145377699999997 32.2363063499999996 30.6007750899999991
 17.2268883200000005 12.3120654999999992  8.8848033799999993
 16.8904048399999986 27.0341450200000004 27.8753818500000001
 26.5427000799999995 28.1602130499999994 18.7008024800000001
  4.3873472800000002 28.1457544499999983 20.6950110000000009
 26.0498614599999989  5.0216210999999999 13.3858380300000004
 30.7797638300000003 15.4906246999999997 20.9293323999999998
  9.2895949299999998 30.2220321100000007 21.6936701599999999
 10.5143242400000005 34.2475435099999999 23.4637127300000010
  9.6198485700000003 15.7948323199999994 23.7467293999999995
  6.2810161400000002  5.0382869499999998 13.4887371999999992
 10.2061150699999992 34.1760423400000022 11.7435744900000003
  9.2565348099999998 34.5806114499999993 21.3367016999999990
 30.9454197200000003 34.6692477300000022  6.0465279299999999
 18.9949523499999984 13.1641686000000000 15.1817396299999992
  9.4979736399999997 32.4430337100000017  5.0676321000000000
 16.6927143899999990 29.4507013399999984  7.9373796600000004
 18.5399074199999987 30.2240756899999994 21.0400438399999992
 15.0167909900000005  2.2062359100000002 15.2069147200000003
 12.6157575499999997  3.0371965200000002 16.1619944000000011
 34.6399050200000005  2.8836391799999999 25.3237538399999984
 16.3307728099999991  1.2985993000000000 20.5584291899999982
  5.5193295500000001 13.3717779300000004  4.4716617599999999
 10.2191649800000004  8.5058537300000001 17.8835700700000011
 24.1622032500000010 24.1499455400000009 28.1347057199999995
  9.9990997700000008 19.8697890199999989 16.5441390499999983
 17.3449462799999985  1.5122109699999999  5.7297814899999997
 15.4374190099999993  1.7013725900000001 34.9690850799999993
  5.4128624600000004  8.9793158300000009 30.3612238900000015
 16.0899452099999998 13.7091084599999995  3.9859044400000001
  1.0959747000000000 10.0467376999999995 15.5204734299999991
 32.5969800900000024  2.4444128599999999 28.2469508000000005
  6.5021690599999999 11.9554197599999998 34.7398466799999994
  2.6031148599999998  0.5514276600000000 27.8446631999999994
  0.2544163100000000  5.9749201699999999  5.4833581899999997
  3.8011488800000000 10.9092683299999997 22.0727486599999985
 11.6867936500000003 34.9408423799999994 20.7378536199999992
 11.1058474599999997  0.9782099200000000 25.7741916999999994
 26.8399770900000014 19.4948997400000010 15.7799962800000007
 19.3974308399999984 22.6201066399999995  6.1323548600000004
 26.4881363199999988 21.1070777499999984 21.6557514299999987
  3.2142885300000001 17.5474026400000014  9.1961961100000007
  0.4680925400000000 27.2312811699999990 16.1427068799999986
 25.4745860499999992 31.3677308500000009 27.4524047700000011
 22.5670523500000009 24.4488650900000017 12.0756186299999992
 24.9222335400000006 22.9790373999999993 18.6815794400000001
 31.3056674000000008 34.3519924200000020 28.9365730600000006
 11.9834071299999998 15.1235789799999996 11.9919664600000004
 18.9802288700000013 10.7065817600000006 10.5196022199999994
 17.9544693200000012 25.7658200499999985 26.1375496699999985
  8.7973508400000000 17.0756005799999997 24.6189617299999988
  0.8897468500000000  8.9753443799999992 33.6130553699999979
 34.6215426999999991  9.2681028500000000 19.0045288200000009
 34.1158003399999998 14.2562402899999991 29.6305111600000011
 20.0010790299999996 18.1351845800000007 18.0473074599999990
 11.0965371099999999 19.4991917000000008 17.9148591000000010
 25.0369675899999997 26.3142460500000013  3.5332800999999998
 23.8386405400000001 11.0315451299999996 12.1789387300000005
 11.4231921399999994 14.5903581100000004 10.1487931299999996
 15.7661088199999995 30.9909943100000014 30.6412899500000009
 33.1601066099999997 16.9117727299999991  1.1643556300000000
  4.3251538900000002 32.8613546200000002  0.7870614200000000
 33.1412183600000034 14.4570175600000006  9.0941349000000002
  0.1252145100000000  4.4802492799999998 14.5497015300000001
 26.8335411000000015 16.3252023299999998 12.6755787699999996
 28.4523886799999985 29.2965182400000010  6.5821423499999998
 26.0664463099999999  3.7631233399999999  1.8139417700000000
  1.9193856400000000 24.1144187099999989 26.0353244299999993
  5.6977125099999997  1.4540731400000000  8.6072663899999995
  7.3262331800000000  2.0011098000000000 32.6524371499999972
 24.5112636299999984 10.8078862999999998 33.1450606499999978
  9.0343469100000000 10.2685511999999992 33.5399762799999976
 31.3812826399999985 10.2173986899999996 13.8197307499999997
  8.2147421099999995 25.1706384900000018 32.9210480200000006
 24.0541499999999999 28.0990305499999984  5.4064720199999998
  6.5752329899999999 14.9409314900000005 22.2355467800000000
 17.8346754700000005  7.3906917800000000  0.3566872400000000
  9.8423644699999997 10.6195914200000008 18.4729781600000003
 25.3439743399999990  6.1768095699999996  3.6383865800000001
  5.3631951600000001 14.2211185300000000 34.3392102199999982
 24.1062196200000010 28.2331929399999986 20.2736936999999990
 14.9699764799999997 20.3946854699999989 18.4787135900000017
 16.7393687900000003  8.5712329700000005 31.7125056399999998
 12.0823126500000004 32.4286786799999973  8.8026207999999997
  0.6477563100000000  1.8403572200000000 25.8837997599999987
 14.0225911900000000 22.6900983099999998 27.4822997099999995
  0.0112715400000000 14.4407115299999997 15.0386321200000008
 19.2900725500000014  3.2492651399999999 10.3991460199999999
 23.4471134100000000 10.6351027699999996 34.1722730799999965
 18.3936937699999987 22.8111219500000004 31.5265561400000003
  1.8291085499999999 11.8274021000000005 18.1470458400000005
  7.3993721499999996  6.2477626800000001  6.1473186399999999
 32.9844427600000003  4.5294085600000003  0.7697212800000000
 21.7055799799999996  0.6826792500000000 28.7900724100000005
 34.7469446200000007 16.8981918299999982 17.9101353799999998
 15.6453386600000002 31.2067871900000000 17.4722950200000007
  6.8623932400000003 11.2431675900000005 33.9177242199999966
 10.1909584500000001 24.4386798600000006 15.8924178299999994
 18.8665375600000012 24.8966878700000009 13.6330679700000008
 20.9733012400000014 13.2739288999999996  4.9230677700000003
  1.9999388000000000 12.9713489800000001 29.4623531900000017
 28.7700826200000002 13.7785607700000003 16.2709179699999993
 10.3183041499999995 29.7379124700000013  5.0948031299999998
 18.3561952700000006 22.5739149099999992 34.7879471999999978
  6.0285536200000003 31.9006990700000017 25.0492249300000012
 22.3234595599999999 25.3847891899999993 27.1518531900000006
 11.1965935200000004 21.1473586800000000 33.6573539899999972
  9.1484331099999991  2.7153236100000000 31.4439227599999995
 13.0097519399999992  9.9009128999999998 14.6430467400000008
 20.6865481699999982 23.8151092099999993  0.5405316500000000
 19.7154097700000008 11.8919654200000000 18.2628519800000007
 28.7532307399999993 10.5491053499999996 23.8135814100000012
  9.8627228200000001  2.7824682699999999  4.9441894599999996
  6.9922697200000004 24.0771518499999999 29.6911099900000011
 23.4856817299999996 28.8528844599999985  5.4291847200000003
  3.3076458400000002 11.6036605300000009  2.7224610700000000
 11.4032628200000001 29.6382283199999996  9.7033096499999996
 18.5253646200000013 30.8031983700000005 24.3550838600000006
 10.8943515600000005 16.3667098600000003 10.2926205900000003
 18.0742811699999990  9.4436331500000001 29.1423685500000005
  5.7881731099999998 16.8254618799999989 20.5378522100000005
  9.6820506000000002 11.2244112999999999 33.6806490399999987
 15.6683859600000002 33.5628376700000004 30.6126943300000001
  7.5535707800000003  7.8640485299999998 11.0637032699999995
 27.6609169199999982 27.0306609299999998  4.3183305200000000
 23.1810571500000009 19.0274433700000003 34.2407486000000034
 14.2616846800000001 16.1344639500000007 26.9356018900000009
 16.6609583599999986 20.7272234500000003  7.4445508399999998
 30.5659431499999990 26.8064848200000014 16.5904127599999995
 25.0671862599999997  9.1993962699999994 19.2531326000000007
 12.3996706299999992 11.2643479800000001  4.8964515899999999
  9.6618899400000000 22.3842195199999985 31.5773939199999987
 16.2596284900000008 30.5760034900000015 20.8906142499999987
 23.5536397999999991 16.0240964599999991 26.9892752199999997
  8.7485886300000004  2.5291650200000002 17.6765614599999985
  9.9685322500000009 31.1215925300000009 20.6056769700000011
 29.6128469999999986  3.1195789899999999  0.7640336700000000
 31.1138753900000005 30.9037202600000001 33.8264895499999980
 16.8098743500000012  3.5582415400000000 23.3655688400000017
  5.1154410300000004 15.2173981099999995 13.8101043200000007
 21.4232626900000014 15.7760921900000000 23.7813857599999992
 28.7504479800000006 33.7792313699999980 27.5415940799999994
 16.5716312499999994 24.4063523099999991 32.5632847700000028
 31.1271201600000005  8.5085541300000003 28.2693115199999987
 32.3186685200000028 14.8617803100000003 21.9417403600000007
 14.8302319300000001 16.7080405300000017  7.0371361500000003
  8.1472430199999994 10.7133699500000006 19.6087740199999985
  4.6649489099999997  3.7963044199999998 34.4884183699999980
 11.8475800499999995  7.2778698400000001 29.1583899700000018
 30.0601598599999988 31.1068017999999995 17.0178841399999996
 34.5787238400000021 24.6114964799999996 15.4212689399999991
 10.2670382700000005  8.1122590799999994 17.7383612600000014
 33.6376934700000021 28.7141140999999998 18.1157347199999990
  6.1534422500000003 30.9038594800000013  1.1663391700000001
  2.6623955100000001 16.8814181900000015 15.9955099900000004
  1.5364101500000000 27.4453346200000006  8.7390139599999994
 16.6076648099999993  0.0225451600000000 28.9164851899999995
 24.3665551299999983 28.6919885199999989 31.2511212900000004
 27.5955156399999986 12.8313815699999996 22.0300861800000014
 29.6584777300000013  0.0352856800000000 33.0464177100000001
 31.1424194400000012 20.6435639600000016  1.3795547800000001
 16.1771468399999989  9.3068693000000007  5.5523914999999997
  9.0438779500000006 30.4567597399999990 11.7609325100000000
 20.9926666500000003 23.7483255299999989 33.1071098700000022
  1.1955048100000001  2.8493856200000001  9.6240531399999991
 16.4611943499999995 23.2933879099999999 16.9705254799999992
  8.6217087299999999  5.0586495899999999  5.7236557799999996
 17.4826662299999995  6.1713285200000003 16.5183811300000016
  4.4316786099999996  3.2224081700000000 14.0141598799999993
 20.9851129900000011  1.7940896700000000 18.2651026600000002
 31.5803430200000008 30.8251598300000005  8.4612934400000004
  3.9588471099999998  1.3433801299999999  3.1898771600000000
 27.2653730299999992 29.1245443299999991 21.2164760299999990
  5.3127035800000000  5.6089954300000002 15.3861370500000003
 14.8053572800000008 18.6397517999999991 28.3085054300000003
 26.0507077299999992 19.2447950100000007 12.2697421299999991
 32.5560017500000001 13.7213744599999998  0.1405710300000000
 17.5772764200000005 21.2848633400000011 34.6982236300000011
  3.0445073499999999 34.0350526100000010 22.1292181499999998
 15.7694625399999993 17.3569361600000001 28.0260753800000018
  4.2488479600000000 10.3876426700000000  5.1103961399999998
  0.4278440400000000 15.7747852399999999  1.8155064800000000
 28.2173559599999990 34.1016926799999993 22.1488311300000014
 30.4047483800000009 12.6060445800000007 14.7911863799999992
 25.4695216900000005 16.2511128099999986 27.4529191899999994
 31.2128815999999993 14.9011157900000004 18.0530740899999991
  3.0162200299999999 13.6100428099999995 18.9895120099999986
 26.7284226199999999 34.5990404300000023 16.0725827899999985
  1.8990174399999999 31.7860924199999992 23.8552717899999998
 10.5529059299999997 17.6899419999999985 24.8551440799999988
 15.4065476399999994  7.8461571000000001 25.3623480599999986
 34.9838180300000019  8.0295985200000004 28.4623751399999989
 22.1389550499999999  4.4175915400000001 11.4609636699999999
 19.4163219699999985 25.1233461799999986  8.0791731400000000
 21.6630466900000016 20.8257503499999999 18.3861470900000015
  0.9741251000000000 27.1206153199999989 11.1816732400000003
 15.3821525300000008 17.8375025700000016 19.9056361099999997
 24.0261057999999998 11.7601290100000000  7.4882664900000000
 30.2948844900000012 21.1236623399999992 20.3928708999999984
 22.9812309200000016 20.5480440199999990  5.9759162500000000
 22.2244316200000007  6.0222543999999996 31.0297628299999992
 17.2239408400000009 32.7736525199999988 31.7779493399999993
 26.9946133800000005 28.4671118000000014 31.7480787900000010
 14.9601828900000005 30.7938525500000004  7.2797354199999997
 25.5132513900000006 16.2161757100000017  0.2651649900000000
 11.6279103700000004 25.2896405800000004  2.9892745700000001
 15.7376552000000007  7.7708749900000003 20.0959263600000000
  2.2342979600000001 31.8457618700000005 11.7196936699999998
 27.8915181499999996 17.7455695200000001 14.7869547200000007
 24.3478997600000007 30.1513180100000007 23.2018177700000017
 17.9512858299999998  7.2610031299999998 25.6796646799999984
 13.1242709400000006  9.6217085600000001 12.0557381800000005
  5.7915985900000004  4.3974863700000002 23.5534794400000003
 13.3289688099999992 19.9788612999999984 29.7218109400000010
 14.4764852099999999 21.2868500199999993 33.0883323799999971
  0.6023298300000000  8.3574526099999993  8.7060510799999999
 22.6004683200000009 26.0711188699999994 12.2949082099999991
  0.5223062800000000 28.4016477599999995 16.4939222399999998
 13.3511636800000009  8.0079210799999991 14.1295464299999995
  0.2868259000000000 25.6829812400000002 33.8656685300000007
 10.2910001599999994 25.8397683700000016  8.9869410399999996
 18.5179813799999984 11.7131006099999997 22.0820255199999984
 27.6029002699999992 31.9447627800000014 30.6280642400000005
 20.8757625599999983 18.9413752299999985 22.6935053599999996
 14.7445173799999996 11.1035551199999993 32.4509506500000029
 33.1276099299999984 30.7401414899999992 14.5579735800000005
 25.8620255199999995 33.0629342300000033 28.7356367800000001
 29.8473913400000015 25.1063041300000016  1.6535850400000001
  1.8037882199999999  6.2686910100000004  7.8898279899999997
 24.3390970499999995 22.2041770999999990 15.6045405000000006
 10.5122406399999999 34.2284151200000011 16.9729771900000017
 14.8276602799999999  8.4862901799999992  4.0790924600000000
 27.3069951700000004 28.6678121499999996  9.9187863200000006
  0.0417171200000000  1.1396906300000000  9.7803357299999991
 18.1026348900000009 30.9846049400000005 28.2552860199999998
  6.5921048200000003 18.5056685700000010 14.7717273900000006
 13.4222596400000000 12.9177875699999998  4.2557516399999997
 21.4178323100000014 29.5077131100000010 21.1342859999999995
 23.9448722700000012 11.4682862799999992  2.4874264500000001
 16.1763882700000003 31.5576746499999992 34.8378173400000009
  4.1959956299999996 32.0986057799999998 26.2673519000000013
 20.3833422599999992  2.8332890499999999 19.0890077900000001
 18.9539149400000007 23.4484335299999991 32.8223117799999997
  9.5940137900000000  1.5897441299999999 13.8296156900000007
 34.3509130200000001 10.7952056400000007 30.0212470300000014
  7.0988373400000002 30.1591705400000016 15.1792522099999996
  2.6918569699999999 22.0401093599999989 23.1180628900000009
 10.2830189000000001 31.6986167499999993 23.6517708999999989
 20.3134745000000017 18.5659801900000012 13.4289864100000003
 20.9745438799999988 34.1589083300000027  3.7722393300000001
 15.0264291300000004 24.1943919799999989  5.1460770599999996
  5.1171665800000001  9.2187137799999999 28.9224697500000012
 19.9491353899999986 20.1184463999999998 30.7286679199999995
 31.7217134899999991 26.8386296100000017 31.8477741499999993
 10.5401353400000009 13.0546216800000003 29.0266104200000008
 20.2412914499999985 30.3854546499999998  3.3363609699999999
  4.2188731600000002 31.6012011599999987 31.3878831500000004
 16.1520741000000001  7.9093213599999999  1.9640625500000000
  4.9993341200000003 23.8085658799999997 30.5667778599999984
  5.8354473799999997  6.3641040799999997  1.4973539100000000
  1.0271223500000000  7.8453748499999998 12.2151433899999997
 24.9150278500000013  6.8730559700000002 15.4517622100000001
 32.7675158500000023 33.6388464300000010 13.0919696000000005
 26.7330435599999987  7.2630374800000004 24.8709979899999993
  1.8631545800000000 24.0389682799999989 17.9398267699999998
 24.6685344399999984 29.0583694199999982 29.0148972299999990
 33.3778165299999969  0.9624139100000000  5.2905589900000001
 18.4249878699999989 23.7710763199999988 30.4796805900000010
 11.9916150199999993 13.0736288599999995 33.4801811700000016
  6.4049150099999999 22.4066560300000006 23.6679089000000005
 11.5448319300000009 28.9902706899999991  4.4794564799999996
  1.2249948100000001  8.4877158300000008 28.0399524000000007
 27.4799738200000014 30.9200049600000000 27.5234272199999985
 26.2412525400000014  1.7313893199999999 14.4603302700000000
 29.7708866800000003 34.2923760500000014  6.9643181399999996
  9.2949542800000007 15.2966550800000007 15.8819444300000008
 17.8401055399999997 28.6538663199999988 20.5311578700000013
  2.1704009200000001  7.9281987799999998  4.2369329100000002
 20.1313584100000007  2.7408174500000002  4.9188172899999998
  0.5622098100000000 34.0602910899999998 26.3122883099999996
  5.6296584599999999 12.6697290400000000  0.1359727700000000
 10.2943061599999997 11.4036638999999997  1.3791975500000000
 10.1733041899999996  7.7234510399999996 28.0415760200000008
 19.7681755199999998 23.7259237399999989  6.6003246400000002
 16.6562300299999997 11.2580743299999995  4.4553004200000004
 15.2342417300000008 16.9006808200000016 24.7425486499999998
 13.0152311699999998 31.9902389700000001 24.9464337699999987
  9.7123955300000002 31.2316424099999992 15.2140676199999998
 27.8345026299999994  4.4856609000000001  0.5027953100000000
 15.4808454999999991 31.5703734099999984  3.2659593299999998
 10.9783971499999993 28.9209399900000008 29.2384558100000014
 10.7267946999999992  0.2385387400000000 19.1205771499999990
 24.5401535799999984  6.3611962200000001 22.6248475599999992
 15.8129724800000009 13.6284223600000001 12.8945848800000000
 34.2881199999999993  5.4329075099999997 30.8765723100000002
 32.5508835300000001 32.6994411499999984  9.5074419900000002
 16.5774607699999983 17.3831038000000007 12.8254914400000004
 28.0346153399999984  7.7800774099999996 34.7610269799999969
  8.5804726200000001 12.0032462199999994 33.5592714699999988
  5.6756193100000001 15.1337445600000002  7.8448162000000004
  2.8258873300000000 34.6882814300000035 10.9460452000000004
 10.1817443099999991  9.5766286500000000 24.3978045500000000
 28.9011201600000014 11.1265402200000008 33.7614373299999997
  8.4772022600000003 26.3383003799999997 22.8144802099999993
 17.9689225000000015 23.6803951999999995 11.4021146800000004
 10.3414540099999996 33.8174859800000007  5.4869073300000002
 28.4514266000000013 13.1268480400000005 17.9349491599999986
 12.6905252599999994 34.6580628999999973 28.0630863599999998
 31.2924724900000015 22.5850887699999987 12.5870386399999994
 10.3584337699999995  4.1964145899999998  4.1400684700000001
  2.1307221900000002  6.0477743500000001  4.9434818900000002
 30.1001798899999997  3.7234461900000002 34.9600878600000016
 29.1967253699999993  9.3633090499999998  9.1351510499999993
 24.4837540900000015  3.4550262799999998  3.6267564000000001
 19.8948096899999989 17.0665032500000002 11.7201161200000001
 34.9916003399999980 33.8269730000000024 24.9352500500000005
 31.7475807199999984  6.5890983299999997  2.9756546199999998
 31.8271156200000007 13.3321460700000003  3.3790396500000002
 21.5194684599999988 22.7064073600000000 21.5884782299999998
 27.5535917300000008  8.2161568900000006 13.9487918299999993
  7.3443624700000001 26.7000961699999984 13.5163416900000009
 19.1548500500000003  5.5647268600000004  6.3643605000000001
  5.8069832699999999 17.9678523299999995  5.6940681599999996
 10.2035377000000000 25.8581450500000010  2.8438034700000001
 20.8049038000000017 18.0181829700000016 11.6012023899999992
 31.4085839000000000 14.0695237300000002  6.4853985600000001
 10.0936614900000006 34.1686770800000019 27.9556137199999988
  9.9997877400000004 31.4326234999999983 33.1030975199999986
  3.7600636700000001 20.3901173100000008 11.7016789699999997
  5.1184838600000004 31.3582601899999993  8.2790806700000008
 21.5087735799999997 17.9576367300000008  9.0005489599999997
  2.2263658500000001  3.5307617900000001 16.5134399300000005
 26.3848221800000005 34.7063749300000026  0.0434968300000000
 31.0512521700000015 28.3951511600000011 12.3055054800000008
  3.6305525099999998 13.6961154000000001 30.6115362100000006
 23.0891556400000013 14.4388028300000002 17.9592445599999984
  1.0233193400000000 13.9281997499999992 11.2531569699999991
 26.8091932300000018 27.1106503600000011 18.7005407699999999
 34.9886929700000024 19.9626843399999991  2.8357777199999998
 25.9162165299999998 33.8511783399999970 11.7543460500000005
 15.2941128000000006  8.1538032000000005 15.9703600500000000
 33.8412893100000005 20.5494204799999984 29.1100768000000016
 23.0608487099999984 28.6842637600000003  6.4209686599999998
 12.2201883999999996  4.7064993800000003  2.1351331500000001
 10.1828223700000002 27.6955343899999988 13.8465126800000000
  3.3385870999999998  6.6334575100000004 13.5204426200000007
 18.0790622799999987 19.7997447000000015 29.3091492299999992
  8.8710389000000003 30.5507167700000011 15.8967322299999996
 21.3785922500000005 34.9999241800000007 33.7257105600000031
  3.0173345299999998 32.3414402000000010 12.5855202199999994
 19.8384045499999999 14.0652820599999995  5.1955879600000001
 32.2467995000000016 31.9592016799999996 28.3026829100000015
 33.1917430999999965 23.6262998999999994 12.2223459800000001
  5.9689639200000002 10.3765820499999997 29.2145211700000011
 28.4572845399999999  6.5813211000000003 12.2637440899999994
  1.7468872300000000 29.9336387799999990  4.6669734600000004
  2.8230100500000002 21.3299284200000017 22.1068873900000007
 25.4564334199999998  6.2764868500000004 33.9145584999999983
 26.9847175200000002  2.1474125300000000  6.5623796700000003
  8.9151784099999993  2.4035715999999998  6.8278781200000003
 26.1475518099999995  1.9033015000000000 33.7883765500000024
  6.2446773899999997 24.2928873500000009 15.5576324499999998
 27.1286465399999983  6.1623986200000003  6.4335457199999997
 13.6029479200000001  4.7456586300000003 30.2845383000000012
 22.2351987499999986 11.9853253500000001 12.3632114600000005
 28.4949318900000002  9.3202662000000007 20.7140219399999985
 30.5667084100000004  4.6682617999999998 24.4760693499999995
 14.2976283500000001 25.2396979500000000  3.6034233900000001
 12.7368903499999995  8.9161886999999993 19.3835058199999999
 33.5822777699999975  7.3424797100000001 30.0565199800000009
  4.9313212399999999  0.7161510900000000 31.3513339699999989
 31.8700556199999987  0.0248215400000000 32.1755739199999979