Na Cl 
 1.0000000000000000
    35.0000000000000000    0.0000000000000000    0.0000000000000000
     0.0000000000000000   35.0000000000000000    0.0000000000000000
     0.0000000000000000    0.0000000000000000   35.0000000000000000
 28900 28900
Cartesian
 31.0071189599999997 21.6483044999999983 18.0536999899999984
 13.5356820800000008 29.2087749800000012  1.8811009700000001
 10.6639915900000002 29.7066823199999988  5.2097223100000001
 24.8028944100000004 12.2463587100000009 24.5508388099999983
 10.9478044699999995  4.7498065000000000 29.9979224799999997
  0.0830840000000000 31.3927776099999996 28.4133195799999996
  2.6621807899999999 13.2724836600000007 15.6329524699999993
 33.0322129600000025  2.4032514200000001  1.4466622800000000
 24.0528692699999986  6.5738932500000002 27.4239192799999998
 33.8114137199999973  8.4303478100000007  8.8556387799999996
 16.7209458099999999 13.9361555100000007  4.9656192099999998
 17.1620178299999999  7.0336340000000002 19.2866850899999989
 16.3163028300000015  3.1016096100000001 13.7527790299999992
  2.9571749800000000  1.2398820699999999 13.6979541400000002
 26.5152465900000003 21.7493739700000006  1.7283680900000000
 33.6824160700000022 10.3668354699999998  5.4036819600000001
 29.6826415399999988 21.1564260699999984 11.0530031799999993
 22.8244909599999986 11.2195044599999996 21.2114960500000009
 26.6141845100000012  4.5990324500000002 15.9383214300000002
 20.3682618399999988 29.3767901599999988 25.7122586400000017
  0.9309481200000000  1.4451005400000001 32.8047529199999985
 29.4823297599999989 14.5163149699999998 25.7057181899999989
 31.0056786899999999 32.4417357000000024 18.2518625800000009
 19.0543989600000003 32.2832423500000019 14.4541470000000007
 30.8486381200000004 18.0609617200000017 30.5836844399999990
  9.9844620600000002 18.8538585300000001 21.8002665399999991
 17.0798168900000000 25.4825482600000015 25.1886665699999988
 20.9189730400000009 10.1798016199999992 11.9258378700000005
 27.5571390200000010 32.8354813099999987 20.9344194399999992
 24.7875136900000008 33.7425560300000029  6.1391382500000002
  0.4965008600000000 14.6898947599999996  3.0612841400000002
  1.0025451200000000 14.7759055700000008 13.6448665400000007
  9.2718583599999995 12.1234925199999992 24.5387740399999998
 18.1752642299999998 26.6659619100000000 34.8217568000000028
 14.2665938600000004 28.6430618300000006 13.9402555800000005
  3.8755874499999998  1.9982612399999999 19.7767363299999985
 27.6075006099999989  4.2627951800000004 34.7985545700000003
  9.3066320699999991  1.5651694100000000 20.8023305399999998
  9.7693142599999998  7.8647227900000001 22.3958946400000016
 17.8012588200000010  5.7569332299999996 16.7768490800000016
  8.5024680999999998 30.9812871299999983  7.4927963599999998
  1.4284741700000001 33.3652950700000019  0.5142794100000000
 33.4940598100000031 29.6631592499999996  8.7174542400000004
  4.2533813900000004 16.5809475400000004  5.9853524000000000
  5.8178609000000003 25.7881207000000003 15.9446431499999992
 21.6174856300000009 25.0810641600000004 32.4453139700000008
  8.3919144899999996 27.9067606700000006 28.9265058099999983
 17.7831343799999999 16.1395759000000005  7.8520748700000000
 19.8223921800000014 24.9453225299999986 26.0357827200000003
 13.4001512100000006 26.3413410600000013  3.9191844699999998
 34.7333176200000011 32.8693175499999981 29.6200497399999989
 19.1759803600000005 10.7019630100000001  2.8923108399999999
 31.0682805199999983 34.5906440099999983 14.9537925400000002
 28.3911393200000006 14.8785559500000009 23.8897843499999993
 30.6055158100000000 26.9042188700000011 14.2064805199999995
 33.3180751900000018 11.8897180099999993 15.4905242899999998
 19.2416932600000017 30.1386486799999993 20.2683805799999988
 30.6724728400000011 32.2510848699999997 33.9833996500000026
 28.9978953200000014 27.6266266700000003 10.7143597400000008
  1.2441131999999999 14.8105366200000006  0.6888960700000000
 28.2763282599999997 10.2490614799999999 20.9763695100000014
 29.8423846700000013 10.9590993200000000 19.5822278099999991
 13.5028511699999996  2.4195324100000000 30.0811455199999997
 33.8126980799999970 30.0165699199999985 33.4906279699999985
  6.9843048100000003 30.2110188499999985 11.5938152100000007
 12.2521967899999993 17.6713998299999986 28.2168682699999991
 25.9050970199999995 21.9656198499999995 31.1727869099999992
  6.0296304899999997 14.9996084300000003 28.4188843499999990
 26.1893282899999988  4.0406194199999996 10.6905668899999995
 21.3577324799999992 34.4098085700000027 20.6526713999999991
 14.4482326000000008  1.4452960500000001  1.0907323200000001
 26.9380595499999984 22.9668917800000010 24.5501075700000015
 33.6579785599999965 19.6457074100000000 30.4044263999999984
  7.1944232899999996 26.6721969100000003 34.6134367200000028
 13.0308930200000006 15.2189381699999995  4.6939031800000004
  0.4307881200000000 30.2559483200000017 31.7234402499999995
 20.8602155700000012  2.6430108799999998  6.0837925200000003
 15.3008175800000004 15.8410374800000007 30.3168495500000006
  5.2904088900000001 15.9021577399999998  7.5650683699999997
 26.1040710199999992  6.1215894999999998 20.5546490400000010
 11.9864683099999993 31.5728782800000012 10.3651735299999999
 12.4714874699999996 28.2898254099999988 27.0955918300000000
 10.6119203700000000 29.5456754900000007 29.1678873000000003
 14.6818957999999995  8.6226522299999999 20.9160476600000003
 31.0131020500000005 17.2062317000000000 15.1361252099999994
 12.8564638000000002 23.5870572699999990 17.6715511499999991
 30.7602426300000005  2.3977988500000000 14.8052001799999999
 15.9994087300000007 32.0626085099999969 16.2611853999999987
 21.7430386599999999  0.2506925700000000 13.3901061699999993
 32.5144252600000030 14.9453647499999995 26.7453213599999984
  3.6160242700000000 14.5198512599999994 15.1401446499999999
 10.4110614100000003 13.7091500499999999  4.6849557500000003
 25.0512116399999982 20.7141161599999997 32.1502568299999965
 19.3666257500000007 29.8789356899999987 30.2720710799999999
 22.6986797399999993 31.7103890799999988 11.5093121099999998
 27.0086762500000006 19.8217807700000002 14.6693779600000003
  8.2353286200000007 21.1681623499999993 33.3046268900000015
 30.8641346600000013 33.5112607100000019  3.7586740900000000
 32.0354488099999983 14.7880809499999994  8.2765216600000002
 13.4995874300000001 17.5659190099999982  5.4008519300000000
 17.1183910799999985  8.7989422099999999  8.8217088100000005
  6.4599847700000002  2.9640024399999998 10.9889341999999992
 31.0170410200000006 13.4084718299999999 26.1861157999999996
 20.0482197000000006  5.4284805800000004 26.4730798299999996
 13.0526977199999994 31.6905570800000014 28.1927760999999997
  5.9878478800000003 12.7592955000000003  0.4794020500000000
  7.3102331100000004 13.0879620800000005 29.3786835999999987
 22.5352543400000016 15.0197617500000007 17.1358108199999997
 21.5724201600000001  2.6655523200000002 34.9378232800000035
  4.9958233200000004 34.8025548800000024  6.5399180899999996
 16.4033699800000008 31.4392324099999989  4.1791171599999997
 28.4221081399999989 10.3715565999999999 14.7517571400000005
 27.7823093800000009  2.2737931400000000 30.6412663300000006
 32.7631922899999992 30.9728470499999986  5.6404405100000004
 18.8837133900000005 33.5709092600000005 26.2719267899999984
 27.2735070399999984 25.8329015800000015 33.5769128900000027
 22.1749968700000011 15.1723893800000003 27.3483921000000016
 24.4260130099999984 13.0006169299999996 31.3687574900000001
  9.7070836899999993 11.9555047699999992  1.1686286500000000
  6.1417182700000001  8.8590475800000004  4.0127471500000000
 32.2412782800000031  9.1639762299999994 18.9484943100000010
  2.3438603599999999 18.2611178599999988 34.6078316199999989
 23.8260602000000006  9.5937271000000006 31.7714399000000007
 22.5903453499999998 30.9343036500000004 22.8414869699999983
 16.8715342300000017 24.8757744500000015 12.1411980899999996
  7.1163122300000001  8.8596036599999994 13.3587233899999998
 30.0640562600000010 26.5935552599999987  7.8832826799999998
 19.3319246699999994  6.6578593399999999  3.6419533899999998
 30.3106792499999997  6.5862029800000004 24.3135210800000010
 12.3487110300000005 29.7862541800000002 12.5740272399999995
  1.6759022500000000 26.8891874000000008  6.5725721799999999
  5.2205488300000003 31.7641404999999999  4.9093071100000003
 15.7246226100000008 33.7322436700000026  7.8193386499999997
 29.6246417899999983 26.3545859900000004 16.5267575600000001
  5.2143654399999999 32.8399744800000022 26.4511346899999999
 29.2206849800000015 27.0524691200000014 20.8485689299999990
 16.8979632500000001 14.0683663699999997 22.0335838799999983
 18.4442546999999983 32.5887870999999976  4.7447285399999997
 14.6525787899999997  5.8917399300000000  7.4730657100000002
 19.8154648100000017 13.5171228800000005 32.2842497199999983
 31.3850490099999995  3.5187950600000000 25.3885460700000003
 20.2938264199999985  3.3406643699999998  6.5460298799999999
 14.1241925899999998 15.3047888800000003 12.5867406899999992
  5.3508487999999996 16.7157380099999990 31.4087418099999987
 16.7235629500000016 22.9224247299999995 12.1924976600000008
 29.3081643000000014 27.3173287500000015 27.3442593900000013
 24.9676510699999987 16.3115583199999996 28.3607289499999986
 28.7715242899999986  3.0086869500000000 27.0014976900000008
  4.1716070900000002  7.2003421899999998 21.1511417100000010
 27.2386995899999995  0.8239303100000001 22.7967828399999988
  0.5291675400000000  3.7188160300000002 27.1410504400000008
  4.6347270600000003 20.8577392300000000 31.0231617899999996
 11.2802259700000000 26.7579166099999988  5.3044817599999998
  7.4250153799999996 17.2334347299999990 17.3375907200000015
 17.8872343399999991 15.7474725000000007 32.7702657700000017
  9.8567657200000003  7.6614481300000001  0.9587873300000000
 14.3385995400000006 13.8424841799999996  5.6316883400000002
 11.7860074699999995 22.4274681099999995 23.4565260299999991
 28.8329873499999998 21.0183266300000007  0.0155903500000000
 17.0269993299999989 12.7777889699999996 31.2991961600000010
 30.5897997199999985  7.7639041700000000  7.9374481899999996
 19.6917533200000001 34.2980456599999997 32.2533378899999974
  1.8499568300000000 12.2244020399999993  5.5251625600000001
  6.4071489200000000 24.9519016200000010 31.6105234000000017
 13.0668651100000002 24.8018937500000014 30.4283129400000014
 23.6555868999999994 14.4489661799999993 13.7745668600000002
 19.1452836499999997 19.7823795000000011 17.4522173800000004
 19.4175648299999999 11.0121605200000001  1.3818608999999999
 19.9361448999999986 11.7873579900000003 10.1258172900000005
 14.6112103700000002 10.6126302700000004  6.4769362900000003
  7.8682226200000001 11.2175555100000004 23.4555188699999988
 11.9056463299999997  3.1978632999999999 21.4884276000000014
 26.0026673799999983 16.8306796799999994  3.2334545800000001
 24.6711740599999985  3.4223783600000002 14.9131204200000003
  9.8148387400000008  2.9947259399999999  2.3588469999999999
 25.1414642400000012 32.5894266199999976 15.4931901599999993
 29.0469920299999984 12.7950563200000005  6.5114947599999997
 28.6924733799999991  4.4000543600000004 31.7135971300000001
 30.4269308699999996  0.4271968600000000  4.8975798499999996
 28.6244782800000017 16.6064894699999996 15.2685934900000007
 34.2507671299999998  7.6432018099999999  9.2927604400000003
 13.4247120399999993 19.1352438800000009 26.0439408000000014
 10.5130926200000001 13.5477359800000006 21.7986086300000004
 24.2152813699999996  6.2339106199999996 18.3358427000000006
 30.5082807000000003  2.6737535800000001 32.7763865200000026
  7.7282459299999999  3.6294263600000001 29.7688631199999989
  0.2823797200000000 20.9559857799999989  2.2530098199999999
 31.3361231599999996 21.2218994199999997 26.4635697199999989
 28.2162062099999993 14.7777999999999992 10.4845715399999992
 24.1938496799999996 31.0315656900000008 12.5244729299999999
  8.8165386600000009 24.5653330200000006  9.5521175500000002
 32.4396405700000017 18.0390706899999991 12.6610958100000008
 30.0373563499999996 32.8480904199999983 22.8557114199999987
 10.9418750599999992 10.0941814200000000  7.9070922799999996
 34.4998981499999999 29.7882047800000009 10.3576706400000003
 26.3705215200000005  4.3551705099999998 12.3506823499999996
 27.9183275399999999 13.3309746400000009 18.6908294899999987
 11.7711708099999992 18.0677604800000005  4.8503582999999999
  4.9719767399999997 19.0130502800000016  2.3361272700000000
 28.2909906100000015 11.6791634400000000 11.6999905500000008
 11.7411646199999993  3.7537434099999998 19.1655465800000009
 10.3414376299999997 33.5421934399999984 33.6452093899999980
 15.0342183899999995 15.1084576300000002  2.8473731899999999
 10.8011461700000009 24.8636875500000016 18.9966705199999986
  7.0413971799999997  9.7624740600000006 32.9014629300000010
  9.8875462800000005 34.9903650899999974 13.0660806600000008
 11.6177094899999993 28.8434737800000001 22.2638969799999984
  4.3164799100000000 27.0779308800000003 28.7843831500000000
  9.1275738200000003  2.1331517700000000 11.8817385600000005
 21.3800520399999989 24.5346526500000017 18.9070048100000001
  5.0297773000000001 10.4670043899999996  8.9427388899999993
 10.6124407499999993  3.2917605299999999 24.6192041099999983
  4.9635285800000002 17.0248286600000007 11.2953643300000000
  1.1882114900000000 20.2705206300000000 31.6401963100000003
 21.7794322999999999 16.9186645800000015 11.9956772300000001
 11.3472741500000005 33.6365596099999991  9.6572962800000006
 15.1784955200000002 24.9741634499999989 20.7651324799999983
 14.5816024100000003  2.9916459299999998 20.5931667300000001
 29.3531714800000003 13.7530182900000000  6.9783635100000003
  0.3554300300000000 23.7124979499999995 25.9530288499999990
 22.5559563499999989 12.9583034599999998 20.2062270700000006
  1.0583624100000000  7.8970008099999998  4.8925759400000004
 14.5238403599999994 12.1849717000000002  7.8193234900000004
 29.3698934700000009 14.7995819300000004 26.5735201100000005
 21.1525713300000007 16.2663967199999995  4.3296197100000002
  2.9184272000000000 15.0059350600000005 29.7505589499999985
  7.6442003800000000 26.0757440799999998 20.0306730699999989
 25.5222387499999996 27.2665894299999998 14.5685078400000005
 27.9112857299999995 34.9792882200000008  1.8971045400000000
 34.6360327399999974  7.8022916499999999 23.1157811200000012
  6.9332616800000002 12.3290700700000002 14.6806426800000001
 22.5615403699999995  1.8089539400000001 23.0888357199999987
  9.0619697600000002 19.5257233799999987  8.8328915200000004
 19.4078163600000018 22.1695462499999998 28.5637980399999982
 11.7536417600000007  3.4570814799999998  3.1684371300000000
 16.9227795599999986 11.1560110300000002  4.0773602599999998
 33.1939189499999969 25.1958320299999983  1.3489126800000000
 26.1754790399999990 16.2762582199999990 30.0718894600000013
 18.2461171100000001 27.4902679899999995 28.9341065800000017
  5.5292814100000003  5.6326763700000004 28.3917629699999985
 25.3602166400000009 34.1609997899999982  3.9233985599999999
  0.5596506400000000 26.0483657000000015 14.8823447400000006
 17.5680986600000004  7.0342080999999999 28.9356200900000005
 30.9668598300000006 10.0132108199999994 12.0341741500000001
 28.3649995100000005 30.5467263100000004 18.8291695799999985
 26.8530556099999984 29.3057197900000013 21.2324511300000012
 28.8062013800000010 25.8265487500000006 31.8047702399999999
 22.7734080900000002 27.6697315900000014  0.1788612700000000
 31.1213851900000016 17.1208295300000017 14.7819205000000000
  9.7377652000000001  2.6197921100000001  0.8460728800000000
  9.9468239599999997 16.2702277299999984 33.7173944000000034
  3.2476146699999999 17.6597932600000007  8.1453971200000002
 14.6894074200000002 29.8704408599999987 27.4996081299999986
 10.9138559100000005 29.1762994099999986 16.0641999099999992
  1.0078571300000001 34.0547824399999968  3.7285313599999999
 15.4265054799999994 28.2776520100000006 32.4973553000000024
  8.0505466800000001 30.5379747600000009 11.7418727199999999
 15.6548727000000003 16.4453975499999991  2.7966068900000001
 32.5720521800000000  3.4809440199999999 19.2261122700000016
 13.2688811100000006 25.0847554099999996 24.4841995899999993
 10.9424354899999994 19.5132950899999997  9.9505004600000007
  8.0612130900000007 34.8084759700000035  1.0555685600000000
 30.9408592400000018 28.0212308000000014 27.8260805399999995
  2.9357159600000000 25.5781683899999983 22.2761093099999989
 34.5691183100000003  3.1714601700000000 32.7310992100000036
 16.5843691799999995 28.4927310899999995  7.3313580700000003
 18.1350775900000016 16.2490034700000017 27.0012665100000007
  0.2862843300000000 16.5807963899999997  3.4449912100000000
  9.9672075099999997  8.8565894200000006 32.6983221200000003
 25.6998940199999986  3.1187739200000002 22.2333369099999985
 15.6934661999999996  0.0863901600000000 16.9594123799999998
 31.8438019499999996 13.7793663599999991 29.8103802599999987
 33.0610360700000001 31.8332034300000011 10.6500280600000004
  5.0215735800000001 12.5870787800000006 11.0331059299999996
  3.4114414700000002  6.0968682899999997 25.0653446500000001
 13.2474754600000004 15.3201393100000001 25.5813206599999994
  5.2563638199999998  3.7067530099999999 34.3978199499999988
 29.1598990600000008 20.4235051699999985 12.8514157099999995
  8.7438143000000004 27.2870054099999990  7.6999761500000004
 18.4991576299999991 10.3422584499999992 12.3377736700000007
 20.9620582900000016 34.3136781799999966 14.9892497500000008
 29.3205957999999995 26.2536826300000001  0.6439119100000000
  7.2274178899999999 21.2124474099999993  7.6036134300000002
  8.9309647000000005 22.7236723299999994 31.7607840900000014
 18.4981679700000008 28.7091106499999995  4.0227666400000004
 25.6389568499999996 28.9478052400000010 25.7625947900000014
  6.9306682999999998  3.7421804700000001 34.8270931699999977
 33.9549855100000002  6.4414912500000003  7.1433865599999997
  8.8978998399999991 27.0025401000000009 21.6914433899999999
  8.0890568900000002 12.7792212299999992 20.3712687999999993
  9.9147478899999992  2.1677253799999998 32.9604637199999999
 21.5137323599999988 31.2997820699999991  5.4373288400000002
  0.1858353100000000  8.3341000899999997  1.2202459999999999
 33.6745195199999969 17.6495352099999998 10.7383086999999993
 18.7544016099999986 30.2278064800000017 13.7434664699999995
 21.4409032400000008 32.2606779099999983 20.2136109899999994
 20.1599649300000010 28.5306077100000017 13.9238508599999999
  8.1614813700000006  5.0173670399999999 11.8878459999999997
 19.0277372299999996  4.1795789200000000  1.1828924300000001
  0.8730351300000000  8.1013521799999992  9.4261273100000000
 14.9217557900000006 14.9496129900000003 28.1455228999999996
 16.8033880199999999 34.5423962200000005  9.0531862299999997
 11.9009897500000008 29.9347968100000017 24.1300189899999999
  8.2291428199999999 22.2034557499999998  3.4807118799999999
 15.3246280600000002 31.0238027999999986 22.0536145800000014
  5.1001850900000001  3.8107493400000001 32.2641145999999992
  7.9740944599999999  5.6055306500000004 27.1536843899999987
  6.9734775800000000 23.2377201599999985 26.3626730699999996
 12.4462168000000002 23.5657574700000012  9.6857905199999994
  4.0812307600000004 28.2454088900000002 15.5871429799999994
 33.1121196400000031 15.3947549899999991 19.6470340000000014
 17.7003827999999999 25.3337302400000013  9.0041991699999997
 28.5755135399999993 33.6560137399999988 21.6229292999999991
 11.5726904200000007  7.2078205100000003  6.8393058099999999
  8.2127188699999998 26.1661206100000001 33.9891673699999970
 20.9359310799999996 15.1935909700000007 33.6834931900000001
 28.4701276000000014 12.4345027399999992  1.6874907100000001
 11.6563301799999994 12.9413698299999993 15.6027742600000003
 15.8269394299999995  3.3710549200000002 27.3199712599999991
  1.7570266100000000 25.3462943900000006 10.1697378100000009
 17.7833628700000013 19.9797013700000008  8.8408941399999996
 13.9078070000000000 18.5123027499999999 21.2723275600000008
 34.0093108800000010  9.4879559400000009  4.0754866600000001
  1.7042874500000000 13.9591043599999995  5.6669013000000001
  8.6101810899999993 21.3135132300000016 26.2169227999999990
 12.8214396399999995 29.9360068000000012  9.4663307999999997
 25.6216766100000015 18.5188336000000007 26.0362563899999984
 21.3611731499999991 22.2371292300000007  9.4309478599999998
 25.9407608200000013 26.3670493899999983 15.9991786099999995
 28.1948168199999998  5.2862850500000000 16.5928098700000000
 30.3554960099999995 24.8213770800000013  7.8845419200000002
  5.4960315499999997  6.8022450299999999 15.3322598100000000
 19.2906772999999987 13.4134491600000008  4.8399854299999996
  5.6351013200000004 34.1479330700000006 29.3111726399999988
  7.8785699200000003 10.1246458599999993 29.9230002000000006
  0.8643326200000000  1.8382894100000000 26.1301026900000011
 23.6359405299999992 34.2524122700000007  0.2929817600000000
 24.1444914299999986  6.4674948700000003 24.1863162400000000
  9.4169942599999992  1.4224711299999999  2.4723601400000002
  7.9568327200000004 30.4874615300000009  2.7659799700000001
  7.8254066299999998 26.6091595800000000 25.1450339499999984
 22.5856689899999985 22.3386947400000011  1.4424601600000000
 23.4278696000000011  2.2044450800000002 20.1085377500000000
  4.1939391500000003 32.5352851399999992 15.5373978200000007
  2.0451186099999998  2.3084301300000001 17.7852777400000015
 17.1629057200000013 21.9564070600000001 16.3334713100000002
 11.6522917600000007 15.0676520099999998 17.0273699399999998
 19.0065223400000001 32.6209567200000023 20.4195484699999987
 16.3511474300000010 28.7348512300000003 16.6445803300000001
 25.4615292000000011 21.9212282999999992 20.0839879799999999
 11.5860299900000001 21.4060640299999996  6.7181047800000000
  1.1870853400000001  1.3432683400000001  1.3110398200000000
 19.6462624400000010  4.7328715700000004 25.3725558299999996
 31.5458542199999989 11.1719295699999996 26.6203455200000008
  3.1471022799999999  8.3480846300000007 26.2584413900000015
 10.6244751300000004 30.5534345199999997 26.5739276699999998
 28.0022879700000011 24.4539575000000013 27.6636580199999997
  3.1003879200000002 28.2197905599999999  5.0200251500000004
 21.5627574600000003 15.2645944000000000  2.0380253300000000
 23.0916951200000007 22.1198293300000017 32.9715054400000014
 32.0918567300000035 17.8361429600000001 32.0547118599999976
 23.5422416100000014 34.4547298900000030  5.6453349800000003
 31.1449588700000000 28.3237686900000014  2.5803479000000000
  2.9071254000000000  0.0565486600000000  5.4133864599999999
 17.7862117700000013 32.8611545699999965 32.4249314500000025
 15.8228099400000009  3.9666557999999998 27.5839618999999985
 28.6476946199999993 21.8033946000000007 34.6530219400000021
 13.3398216299999994 27.3822189800000011 32.9544115500000032
 24.7949198099999997 18.2172415699999988 32.1791059399999995
 14.2334848199999993 32.1793245599999977 17.9078869199999993
 12.8554799000000006  7.0506042700000000 24.5059166399999988
 25.9408969099999993 28.6543058100000003 27.9177634499999989
  3.8502283199999998 30.7873396799999988  2.8179435800000001
  6.1777003900000000 18.6104657600000003 26.0980466900000003
  9.8706373000000003 30.8010837399999993 23.8144062199999986
 23.7254141599999997 33.0358505000000022 28.5392870800000011
 19.7979430900000004 34.0294352800000013 32.7186692100000016
 17.6734901300000011 28.3485789799999992 34.5669150000000016
  1.1403679099999999 21.1634767600000018 24.5539775999999996
 28.7015247299999992 16.5261634000000015 30.2282313199999990
 20.8838153300000009 14.2842267100000004  9.9983559399999997
  7.3682206900000002  7.6851817400000000 14.8494582200000007
 24.8442310699999993  6.9915925999999997 12.6967500399999995
 34.2779931399999995 10.2306247100000007 26.1095532599999984
 28.2615913100000000  7.5652143000000001 28.5567768800000010
 33.7490156799999994  9.7065717399999993  3.3513118000000000
 10.4974108800000003 29.9845768899999996 20.7837629200000009
 12.7034447700000008  6.7962169699999997 19.0185792700000000
 25.2617400299999986 24.0647296799999992 30.9117139499999993
 28.1763704299999986 10.2578542699999993 28.7566913600000014
 33.7117076600000019 12.6707019299999999 16.4872538700000000
  6.2758732100000003 23.6010864900000001  8.4605692799999996
 26.7879037500000017 19.2982829299999992  1.2412252200000000
  1.2722162400000001 32.1382999100000006 28.4066334900000008
 30.2891361000000003 29.5104991699999992 32.9594924199999966
  5.1890217800000000 26.8890057700000007  3.5199751099999999
 10.2216614700000008 15.4642715400000004 33.0118516900000003
 10.1913423699999992 30.8912082599999991 33.5372303500000015
 20.2304744700000008 23.5844534800000005  8.9096247999999996
 14.0640613000000005 19.6782131000000007 16.7275370199999998
 19.7146948500000008 34.8763363600000034 21.5851604799999990
  6.7921977599999996 21.4678165700000001 29.5931634400000014
 22.2979329600000007 16.3593095700000006 25.9159994500000010
 30.2027989099999985 13.4413362900000006 18.5390917500000008
 16.5150551000000014 18.5311318000000007 22.7321946799999992
 34.9959028600000011  1.1393378800000000  3.8518218900000001
 22.5704275000000010 11.1750155899999992  8.4871033499999999
 17.7459289099999999 20.8272291100000011  8.2397218399999996
 25.0049083100000011 12.4938843100000003 19.7136119799999996
 16.6766233600000007  4.0087897799999999  0.7297791600000000
 15.3982871699999997  9.0124318700000003 26.9424740999999983
 27.1622028399999991 10.1431287700000006 25.5652922499999988
 15.8668641400000006  9.3855241199999995 32.5038752600000009
 12.6314949900000002 22.5363502500000017 33.4386130899999969
  7.7702495300000001  9.5838602200000000  5.9387755799999997
 28.0012023899999996  6.2084993700000002 11.2489156200000000
 25.5248610800000009  1.3402400699999999 20.4147909100000007
  6.3908545099999996 31.0917058900000001  8.3008845499999993
  2.9666963399999999 21.2653803900000007 22.2482948799999996
 22.0919821499999998 19.9440581200000011  4.7848813999999997
 24.5016950099999988 24.9880114999999989  8.5092233799999999
  4.5174085499999999  9.0854768200000002 29.6088656300000004
  6.2045914000000000 15.5676768899999995 20.9454271900000002
 34.7947826899999981 15.9126497499999999  8.9043203599999998
 29.9122846600000010 30.7682277199999987 31.6033223499999991
 32.0386777900000013 34.0576906699999995 17.6070640099999984
 31.9247522299999993  9.3107026000000008 34.9785153899999983
 23.9082273299999990 25.5766966999999994 32.5414171099999976
 13.5973369999999996 15.4430353199999999 26.0946643800000011
 23.0242346299999987  8.3114842000000007  6.1149353199999998
 13.7179454500000002 12.5091052600000001 30.5321482400000015
 18.8155230600000003  7.4960216700000002 20.6361772999999999
 17.2319332000000003 27.1013456499999990  2.3162998699999999
 10.0519747800000001 33.5401266300000032 33.9082216199999991
 25.4807454100000008 29.8881344700000007  9.8760868899999998
 17.3924179400000014 29.3683337100000017 23.5846102500000008
 11.5444894100000006 23.2335065199999988 25.5440098900000017
  8.1742010300000008  8.7966782200000004  5.7708015000000001
  4.8608783300000002  6.7821022400000004 26.7922875599999983
 22.9769753600000008 19.0248510899999985 25.6722118299999984
 27.8642483699999985 14.4223896400000005 22.1026985600000003
 25.0546809300000000  9.0224454699999992 20.2409925800000003
 25.3622560700000008 33.4377970399999995 29.0549287199999995
  6.1870287299999998  0.3918949000000000  6.5775131399999998
 18.2632964099999988  1.2228349599999999  7.1871760099999999
  9.8671641799999996  7.4283825400000003  3.8253629999999998
 32.8760087900000002  2.0796540700000001 22.7459017199999991
 20.3702865399999986 28.4059610999999990 18.9881719500000017
  4.2059319600000000 24.0984556699999999  2.7445295900000000
 32.3088720900000013 25.2132848000000003 14.6776324000000002
  6.9677023699999996 31.1736798499999992 21.0373196500000006
  4.2313960000000002 32.0726191099999980  9.5093020599999996
 12.8397362499999996 22.4470859099999984  3.1728930599999998
 21.8135809199999997 30.8545755700000015 12.8516308099999996
 12.3590490600000003 28.5374823900000010 24.4664576999999994
 27.7545970299999993 26.5122362500000008  6.1547141999999999
 17.2816262499999986 22.2923411700000003 27.3779978600000007
 32.0100177500000029  7.3683375199999999  9.6486612600000008
 10.0497475699999992 31.1074633600000006 28.1366895499999998
  8.3412720100000008 16.7586591300000016 17.7839406000000011
 29.6897211799999994  0.1438876000000000  3.3189479400000002
 26.5579775399999995  4.9284400899999996 22.2926044099999991
 31.8024009300000010 17.9524108499999997 26.1690808100000005
 13.7412402199999999 19.0244014200000002 18.1146783599999992
 23.3991279200000015  9.1430120099999996 16.6028066800000005
 23.3718738700000017  6.0841677499999998 21.6073450600000001
 29.6484121800000011  5.8635009199999999 22.8599634599999995
 12.4059006499999995 10.9722074799999998 29.8910397299999993
 23.7047655699999993  0.9949542100000000 27.1954819100000016
  9.4644299899999993 28.6748677500000007 23.5022115400000011
 26.6693489899999996 21.7484188899999999 20.6762108100000006
 25.0751118499999990  2.4048271799999998 27.9303523399999989
  5.4318558799999996 13.2016956400000005 15.8985856999999999
 17.5299289400000013 30.5157593700000014 23.3676700599999982
  5.4306800900000001 28.4403480500000008  1.9296578499999999
 21.7595461499999985 32.6921566099999978 27.0762214499999985
  0.0539772600000000 32.1957449599999990 13.8855068500000005
 28.7137008800000011 11.1706929000000006  5.8356218799999997
  9.2969968299999994 14.6257716200000001 10.3435883299999993
 34.6890625099999994 24.0735274200000013  3.7753083699999999
 31.6077592699999990  1.6100850300000000  5.6991210900000002
 25.1281357800000009 18.5779985399999994  5.4213941600000002
 12.3716663600000008 30.5965576000000006 16.3435793400000016
  6.5379196600000000 17.8157628000000017  4.5253261399999998
  2.1564115699999999 17.8091961300000001 34.1593147199999976
 10.6025074400000001 11.3425863800000002 24.8492046400000000
 20.5824599500000005 24.4044371200000008  0.3746019600000000