Na Cl 
 1.0000000000000000
    35.0000000000000000    0.0000000000000000    0.0000000000000000
     0.0000000000000000   35.0000000000000000    0.0000000000000000
     0.0000000000000000    0.0000000000000000   35.0000000000000000
 Na  Cl 
 1900 1900
Cartesian
 24.2155966999999990 11.5337713599999994 18.0952174899999996
 11.3203647299999997  1.3700895000000000 32.0942172900000031
 22.5100435899999987 11.3026344900000009 18.3778320000000015
  1.2224841600000000  1.2912589900000000  2.1898444100000001
 19.7149601300000015  4.3349797900000002 23.0053766999999993
  6.3662256599999996  2.1547227000000002 24.4244809700000012
 22.2515881399999991  7.4419438900000001 21.7508757499999987
 26.9687219999999996 13.3106892999999999 27.7551273400000014
  0.4251403600000000  5.3339852900000002 13.2907016200000001
  6.8220795499999998 33.6909799599999999 14.3001837700000003
 33.1886210600000027  6.1541724000000002  8.1756064800000008
 32.4181476500000016  6.8075973300000001  0.2882741600000000
 15.0237722700000003 14.5405725900000000 13.4035589399999999
 13.6150634900000007 33.3720166199999966  8.4833803799999998
 25.1739892900000015 19.2379576800000009  2.3546927100000001
 25.3204283500000003 30.4392654600000014 32.7345311099999989
  4.2643193000000004 25.4144568100000008  0.7756693500000000
 16.6748468099999982  9.1503692799999996  0.2565452200000000
  6.7555542900000001  0.6008800600000000 18.9911867500000007
 19.8756466100000004  9.9925858099999996 15.3896443400000003
  3.7524748500000000 32.8447557900000007  1.8105333100000001
 14.6333366799999993 32.4895702299999982 17.2068792200000011
 26.0190829900000011 12.7277662800000009 30.5678355699999997
 23.6124973099999984 25.2422261200000015 11.0943473699999995
 17.6962772299999997 26.3314499799999986 12.6797446100000002
 28.4676359199999993  5.5568921800000002 14.6868716700000004
 22.2521427199999984 16.7627192200000010 16.0219759099999983
 26.3491635700000018 30.3920528800000014  9.2326871700000002
 18.7733018600000001 32.8844428499999992  3.8309323599999998
 21.4801286299999994 26.5219362099999998 29.1818599300000017
  4.5198535299999998 15.1782982000000004 21.6577786100000012
  2.2850957500000000 10.6043488700000008  7.2914940300000000
 13.1401495100000005 31.4927608799999987 28.8321204800000004
  6.4489141400000003 26.8999387900000002 12.2713075000000007
 23.8652029100000007  2.4653744099999999 30.5477150699999989
  0.4472516100000000 26.9578204700000015  5.0885759999999998
 18.6968201299999990  7.4559243200000003 11.7200425599999996
 33.7553861900000030 11.7756468499999993 23.2965827300000008
  0.6659927500000000 28.3401128900000003 32.2773781599999978
 20.8947614600000016 23.2557931400000015 15.1152557299999994
 12.1030901300000000 31.6357574499999998 17.1754282399999987
 22.4223465500000003  7.3784385199999996  4.4162283799999997
 23.5503242200000003 30.2991342500000016 22.5493387100000007
  6.7357350599999997 17.4990996199999991  2.3672650200000001
 26.6232023700000013 16.1622298800000017  3.5975434300000000
 18.9123474199999997 24.8230814200000012  1.5294838600000000
 16.0352138900000014  3.8397715699999999 30.0408568900000006
 21.6818038999999985 21.0781652199999989 25.7227843400000005
  2.8363988000000000  1.3545974000000001 16.7184253500000004
  6.5747970699999998  7.6143150400000001 13.7928654900000005
 11.6903292000000008 24.3629423000000003  2.9712200200000001
 27.2948793599999995  0.0373453100000000 32.6626054700000026
 20.4101324300000009 33.0957390399999980 20.0860548299999984
 11.3235656099999993 20.1671821700000002  9.8308004899999997
 26.2638808700000013 32.0457031899999976 12.1335367099999996
 18.3514458400000002 12.7503095299999991 24.4522717800000002
 34.3318099900000036  4.7304202499999999 19.1731784300000001
 33.6099556699999980 17.5249635300000008 17.0621273900000006
  8.1750980799999997 23.8733959599999999  0.1658805000000000
 22.9535548399999989 10.3962395700000005  9.5984383599999994
  5.9535177900000003 30.7735266699999990 15.6627869600000000
  9.4604520200000000 31.8171300499999994 20.5047750200000003
 13.7538326400000006 20.6651963300000006 14.9547126800000001
  8.8560058500000007 22.8902378999999989 31.2284151200000011
 30.9729458899999983  7.3015091300000003  6.4638688899999996
 33.2444919300000024  0.1759262200000000 16.7919753999999983
 17.7306078599999992  8.3262582599999995  9.4225049999999992
 24.0415641499999992 26.5686265800000001  8.9069394600000003
  3.9314246300000000 30.4538163799999992 32.2918220299999987
 18.6529266199999988  4.7376620999999997  0.8869948300000000
 32.7220890400000002  5.1504633599999998  8.8377692099999994
 31.3871951500000002  4.5889657000000001 21.7465402999999995
 24.1027588900000005  5.0686731600000003 34.1898150900000033
 33.2221414899999985  9.5319982099999994  9.2938434000000001
 31.6260685799999983 29.3345501000000013 15.7834770700000000
  7.8991497300000004  6.0095874000000000 28.1354966200000014
 23.2917574999999992 24.5683718400000011 25.6255945899999986
 14.3682610099999994 22.3627574799999991 20.8650045000000013
 13.1306054299999992 11.0854140000000001  7.5530962400000003
 34.8885086800000010 16.1653181000000004 20.5012808500000006
 25.0272230200000010  2.5373732800000002 15.6326376400000004
 27.7408438400000001  5.3623767700000000  0.4663528200000000
 32.9919264899999973 25.3085150699999986  5.2128387900000002
  7.1816141800000004 21.3895967200000001  9.9521346699999995
  0.5274646900000000 10.0990749999999991 20.1535459199999991
 25.6463379899999993 13.0025669399999995 29.1425396600000006
  8.6640898899999996 17.3587819100000011 24.0475726099999996
 22.5527778499999982 29.5373069599999987 28.5180530899999987
 12.9182832199999993 12.5860216900000008 28.2664650799999997
 19.4785776700000000 21.4549533399999994 23.4008652200000000
  3.3418261000000000 26.0712559100000014 14.5980521599999999
 34.4626010500000035 32.9358633200000028 28.0547446799999989
 31.0937893299999999  8.3172737100000003 33.4192060299999980
 31.5957059099999995  9.0292908399999998 30.2910860000000000
 27.2823638799999983 34.6897405200000009  0.4689949800000000
  7.3986673999999999 29.4030615200000014 12.2549201900000000
 28.4436465200000015 22.3670009999999984 22.1857684000000006
 21.2094195200000009 26.7139386700000010  1.1672988000000000
 18.7909772799999999 14.9552236300000008 17.4434895099999991
 12.7282779900000005  4.1681936200000003 19.8301988899999984
 16.1527596299999985 19.4310673899999991 27.9496332800000005
 14.4865099799999992 14.7732796299999993  4.5106789300000001
  0.9807840000000000 34.0367565600000006 15.7675859400000000
 20.8169028400000009  9.6859920600000002  7.4685616399999999
 14.1154951299999993  9.1266422200000008 21.4757174299999996
 22.3827793499999999  7.3724686600000000  9.0807265899999994
 19.7718380200000006 15.2816093199999994  8.0078056899999996
 12.1901721300000005 25.2229240300000015  1.6841413100000000
 25.3629779000000006 10.5695694299999996 17.7533962699999996
  6.3310430899999997  5.8411414099999996 32.0637343000000001
  0.1824113800000000 20.7880982799999998 15.5677643400000001
 22.4152975999999988 28.9067738600000013  1.1482112000000000
 12.9855969000000009 23.9271430400000007 28.4930120000000002
 12.0526935900000005 24.6211528299999998  2.7156708400000000
  2.2798506500000002 27.4499256000000003 15.8995406799999994
 33.5801687599999994  6.8963054899999996 21.2063744099999987
 10.5347273900000005 27.1631605500000006 26.2393876400000003
  5.3880326600000004 11.6648629899999996 16.3523471200000010
 13.8980437499999994 29.4212403900000012  2.7871800900000001
 14.1358546599999997  1.3092415200000000 24.4221548499999983
 18.1564866500000015 26.0711433899999996 12.7068882900000002
 29.6714741400000008  8.4658081099999993  9.8368666900000008
 23.2185410499999989 19.0194893900000004  5.5581439599999998
  0.7255218500000000 13.8457844800000007 26.0997108599999983
  2.8403592299999998 32.9175940200000028  1.0027603899999999
 18.3938795500000012 25.9335693599999999 10.5002026799999992
  6.9064780900000002 17.1772849399999998 18.6279199800000015
  4.4511455399999997 15.4030706899999998 19.4090840100000008
  8.4749973599999997 24.2806375999999986 19.6760670200000014
 15.6584620700000006  6.7719909700000001 31.8521490000000007
 14.0681701599999993 18.7358258000000006 33.0241537599999972
  6.9522003899999998 15.6318906200000001 15.1855866099999997
  4.1541927999999997 29.5183545000000009 24.9840415900000004
 11.7870775400000003  5.4121516099999996 32.0321674999999999
 29.6391786400000008 25.6754814300000014 12.8164740199999994
 16.4788138300000000  4.4240652100000002 15.2639708800000005
 26.5585560200000010 14.6510603600000007 15.3714367900000006
 12.7381106000000006 29.4247980300000016 27.5804455799999992
  4.5488237399999996 12.0806785100000003  4.9637966999999996
 21.5311346899999982  8.7807103400000006 17.3986515600000011
 29.1367301699999999 16.0239896799999997 25.1945322199999993
 14.5030116400000004 12.1166792599999997 15.0283087799999997
 20.7856489000000018  9.4009837699999999 12.3342866600000001
 32.3559747600000023 11.8677925399999999 31.9891365199999989
  6.4174654200000001 23.3412776400000013 16.8533190600000005
 33.7334881900000028 28.7360931300000004  2.5172332200000000
 27.1386844399999987 34.8693361699999969  8.9330732000000008
 23.1613549399999989  2.8924295199999999 33.0629872499999991
 29.6267080500000013 26.0822603800000010 24.5502626500000005
  1.2643551900000001  5.0176037899999999 15.8668504000000006
  9.1546070900000007  1.4814361000000000 13.4964636299999992
  0.0642078500000000 29.1412732500000011 22.3794569199999991
 21.5324588199999987 31.0353043799999995  5.3607481799999999
  8.0946046400000000  1.0201192800000001 30.1448032200000000
 18.7077030200000003 15.3646697999999997  4.0053125200000004
 12.2875015399999992 16.0383073500000002 20.8317121800000002
 13.5866048700000004 10.0680768900000004 24.1683057800000007
 21.7151799300000015 22.0290339099999990 11.9729180599999996
 13.8339070399999997  1.4756407000000000 21.0933067500000000
  0.2064941900000000  5.5478417400000000  2.5761023100000000
  1.5515732900000001  2.2922662699999998 26.1192046299999987
 15.4721727999999992 25.8083156699999989  5.3614426899999996
 19.7672822000000004  8.7119343499999999 16.4806176099999995
 34.7402109100000018  8.7247443699999998 21.7785574799999999
  2.2155777099999998 32.2146041900000029 15.8526792200000006
 15.9797203000000003 16.1590595300000004 20.3135083899999991
 19.1354659500000004 29.7761406400000013 17.5958134000000008
 17.8357577399999983 25.5802696300000001 22.5916222900000001
 17.3958908299999990 17.7371999799999998 14.1201372799999998
 17.1472869099999983  4.4511383000000002 15.2814489099999999
  5.3118562699999998 26.3682904499999999  1.8575875100000001
  0.4731976400000000  8.0327065300000005 10.6986549899999996
 17.2944488599999993 27.8020234600000009 18.6082228799999996
 23.4018695600000015 20.2217784499999986 17.4304120299999994
  2.9349890200000002 13.3603842099999994 22.9773500700000000
 25.3226130299999994 32.1572638199999972 32.1329388799999975
  8.3037964599999992 16.9071355700000012 28.2275313499999996
 30.1194440199999995 12.4956857600000006 14.9905867100000005
 16.7907671900000004 32.4241536500000009  2.7503862300000002
 25.7414313200000002  1.2362729299999999 23.0390922200000006
 13.0229088700000002 21.0293022000000001  9.4821355000000001
 11.2513102400000005 30.7712606300000004 12.5773653700000008
 22.7796998700000017 28.4157589699999988  8.6610466000000006
  1.2102499900000001  5.6715638799999999 16.9740512099999989
 32.8786331299999972 11.1869972299999993 34.8623627500000026
 31.7307673699999988  4.0071966999999997  8.9549090200000006
  5.1558926999999999 30.0886172199999997 19.3896494699999984
 31.8386196900000016 31.6811898800000016 10.7583147100000005
  4.9953387600000001 26.6585524300000003 15.2906431400000002
 19.8391736600000002 26.9917048500000014 14.5833746200000007
 32.7772029300000014 21.4495930500000007  3.3103547199999999
 22.1318418900000005 24.8666705499999985 34.1319615399999989
  5.8776639599999996 15.8981627200000002 10.4208072999999999
  2.5082105800000001 15.4952275900000007 28.2900967700000017
 31.6564085199999994 14.2579607999999993 23.5471846400000011
 12.5322656899999991 34.7894977400000016 32.0884849299999999
 31.1661466599999990 34.4268570699999970 27.1867329799999986
  2.4212347300000001 23.6921210100000010 33.4778798700000024
  2.7269981300000001 17.6576525000000011  7.1656210400000004
 32.5928662500000002  3.3029797500000000  3.1806230499999999
 11.7316628200000004 19.0569525999999989  5.2023078600000003
  5.1882342499999998 13.6530500799999999  6.8126673899999997
 15.5007652300000007 16.3611626100000009 22.0599402299999987
  6.4154242999999997 24.0362663199999993  7.5280626499999999
 34.1489235900000025 10.9588383500000006 15.1961739500000004
  7.0956199700000004 11.0848678700000001 33.3742129800000029
 10.3975075500000003 30.9093679299999984 23.7468090499999995
  7.6196774700000001 33.9192599000000001  1.0010720500000001
 25.0179299200000003 21.3481655000000003 13.6175999799999996
  6.0029152200000002 20.9961081999999983 11.5904380200000006
 25.4918059200000009  5.7820919799999997 19.6198882999999995
 16.4625781400000015 11.5508137699999995 24.5271058199999992
 32.0675426600000009 29.1894332100000007 26.8038925900000002
  8.0226977599999998 17.4812176999999984 16.8258807899999994
 27.5784931299999982  6.7339531299999997 22.5502845600000015
 22.6325780300000012  5.7389981299999997 30.3416543499999989
  2.1846639600000000  2.6471890999999999  6.3072211800000000
 25.4663561200000004 33.0473371799999995 11.5960551299999999
 14.8985199399999999  9.4245482000000003 23.3816376000000012
 30.1831738799999982 33.6033474899999973 11.4612704300000008
 24.5720992500000008 18.2720412500000009  8.1972755700000004
 11.6104538999999995 11.8987403700000005 27.1293244499999986
 17.5559487200000000 12.8301466600000005  1.2749462300000001
  8.0212114600000000 27.5010905600000015  0.8290633200000000
  4.0671642400000003  1.8293811900000001 16.4095847699999986
 30.8912478999999998 34.2034109000000015 16.7270012199999982
 10.7094787199999999 24.2088541299999989  3.2113098199999999
  2.4841533400000002 31.1652692000000009 19.6793946800000015
  1.5864011700000000 27.6444629599999985 30.4890337000000002
 29.1894069999999992 26.3634245199999988 25.0759810600000002
 17.0136845600000015 33.9964561399999994  3.4383715700000002
  3.7109465899999998 34.8792840099999992  1.1263126800000001
 29.9372776499999986 30.8254708000000015 13.6877428299999995
 29.8937691200000017 34.5775419799999995  4.7479756399999999
 34.2265168799999984 20.0691742200000007  7.6111840700000002
 31.1706282399999992  4.7488131200000003 13.3020463299999996
 22.4927050000000008 34.8930187799999985 21.9666392600000009
 13.3061179700000007 20.9246777399999999  1.0588513500000001
 16.1146885299999987  9.5701262699999994 20.1121451499999999
 29.8234913199999987  8.4186062699999997 21.5155379700000005
 26.6466071400000004 24.5262318499999985 17.3786997800000016
  8.8071345900000004  6.5109840600000002 20.1090985499999988
 13.6193530400000000  0.4666127800000000  2.3609971299999999
 26.2787460000000017  1.8839541700000000 23.6177604499999987
  8.6998820699999992 23.9179023300000004 13.1844664300000005
  6.3272667399999998 12.3721042099999998  2.9554969600000001
  8.0373256499999997 18.3322466000000013  5.0685571200000004
 32.2394838700000008 14.0053362099999994 12.6857071999999995
 23.6809680799999995 21.0305054600000005 29.7053171399999982
 17.2651164199999982 24.8117061499999991 20.3452529200000001
 27.6658281700000011  4.5740470300000000 16.0084525100000015
  9.0613433899999993  8.9983175600000003 34.7233043900000027
  4.5768253799999998 27.7040933799999998 17.6974101799999985
 10.3729281199999992  2.8029190499999999 33.6604832100000024
 26.7413606100000010  7.0478230999999996 12.7628871000000004
 25.8435229100000008  2.0894693599999998 12.7115999899999998
  3.8609479499999999  0.9521992300000000  8.6123794799999995
 23.2618807700000012 12.4301245700000003 33.1035756100000000
 11.7953187300000000  3.9218260200000001  9.1299233900000001
  6.6224283499999999  3.1532388899999999  6.4860918500000002
 21.7457948399999985 11.5737982699999993 25.8274573499999995
 12.0756993300000008 26.2786998599999997  1.1084783700000000
 10.1960222799999993  4.5465323700000004  8.5695806999999995
  3.9427474400000002 10.7562894199999999  5.9563065999999996
  7.6450260600000002  4.9529533299999997 14.2866523000000001
 15.7652090400000002 15.8682575099999994 32.8040166700000029
 17.1081355899999998 11.4348596899999997  0.6868488500000000
 28.8685958400000011 24.4903356899999984  9.0719510999999997
 12.2821483899999997 31.0680490200000001 30.6998427900000017
  2.2577950400000000  6.7612632799999997 26.5519715199999986
  8.9853772599999999 27.2356246599999992 19.1437139999999992
 28.4011366000000010  7.9028775800000002 33.6634299799999965
  6.2677209800000000 26.5864833999999988 29.0264823800000009
 18.0893529599999994 17.7552268099999999  2.0969702300000002
 33.7785994899999977 16.9216023100000008 26.3700103800000001
 30.7643997599999999  2.2667712400000002 17.6243137200000000
  6.8406662300000001 31.0773392699999995 11.8411140499999998
  3.6038803200000000 20.4165934500000006  1.6861820599999999
 24.6619629200000006 23.6107289700000003 30.5218627799999993
 20.9476962799999988  2.9314278699999998 23.5082252899999986
 22.7425252100000002 33.6211265199999971 30.2733792400000006
  9.6848293200000004 22.9263523900000017  8.2046352900000006
 30.3052808800000015 20.8558085300000009 33.5739782799999986
  7.8529830100000000  0.0853775100000000 34.9397593300000011
  2.5351274699999999 12.8874283199999997 19.0077422700000014
 18.1243615100000000 11.1438591200000001  9.8401541399999992
  8.4707123000000006 22.2616441700000003  1.4534837300000001
 33.7011177600000025  9.6862688499999994 12.1205946600000001
 10.8344563699999998 24.7081815499999990 30.4073833799999989
 21.8925333299999991 27.8076180099999988  7.6358275600000001
 25.3538681299999986 32.4617206300000021  4.1386173900000003
 12.7425424899999999 33.9115630800000005 11.6406972300000007
 30.1983359799999995  8.4327480700000006 14.1968156499999996
 10.8806855200000001 31.6815162500000014 16.2436212699999984
  6.5426035999999996 26.5387458699999996 31.7018549800000002
  8.0766949100000005 15.0114225500000007 16.9787639500000012
  7.0856380100000003 18.3180337800000004 11.1937972499999994
  9.1504025999999996  0.8164436800000000  1.9689180500000001
 16.6056298899999994  0.8216245500000000 19.0438110800000011
 29.3327757200000008 20.9614883300000017 24.7343196100000000
 14.7096293399999993 19.7403089200000004 10.3719602999999996
 21.5368279700000009 34.4677401000000003 14.3078701200000005
 22.3731373600000012 20.3196667700000013 17.6394341899999993
 15.9704676600000006  0.6500023800000000  4.5899493099999997
  3.2780626900000001  4.3995868800000002 23.8566658999999994
 33.9837250100000006 34.4662186500000018 23.7368912399999985
 15.9310040199999996  2.3845387699999998  1.9431526900000000
  3.5671794399999999 33.5849004000000022 16.4210609599999984
 13.7716095799999998  4.4422430000000004  5.7781518700000003
 23.3984735499999985 33.1450066100000029  8.1260185000000007
  3.9928593000000001 12.9862823200000008  0.4469716100000000
 22.2518246300000015 11.4165655099999999  8.2165842599999994
 21.1315987499999984 13.7801866299999993  8.5966471099999993
  3.8479170800000002 26.9423298100000004 24.7371631900000004
 27.5017836699999982 12.4781835099999991  0.8302370000000000
 23.7931757700000013 16.9051955700000001 30.6219378499999983
 22.9095050100000002  5.0507825899999998 13.5029777899999992
  4.5476396000000001 27.1788084699999999  9.2338827400000003
  3.8671918800000000  0.8939889000000000 10.2714552200000000
 12.3478368100000004 15.0933024600000003 28.1343898500000016
  4.6901995799999998  8.1842689300000000  3.0079078799999999
 13.9077079900000005 16.8482209900000015 18.0501236200000008
 23.4276791600000003 34.0036557199999976 19.4416319000000009
 30.5072944399999990 21.0975817499999998  2.0564771799999999
 18.2118900799999999 12.2365138200000008 34.0876965200000015
 31.9153286899999991 25.9292896599999985  8.5713298899999995
 33.3415252699999982 21.0152257099999993 17.8984669700000012
 29.5343300000000006 13.4843874699999997  7.1001954800000000
 17.9854417300000016 21.3190837399999999 14.8404911700000000
 14.1351253200000002 24.0511906599999996 13.3614756099999994
  6.3205986799999998  5.3020182800000004  1.0212914799999999
 14.8458877600000001 34.8356621699999991  2.9740716900000002
  5.2228994599999998  1.2712220700000001 15.4292754700000003
  4.8327704200000001 24.3724359799999988 22.5315972199999983
 23.5544707399999993 29.9897828299999993  3.2799494100000000
  1.1097263399999999 31.1705745000000007  3.8456892400000000
 24.4989835499999984 14.4165503099999999 28.9610454699999984
  3.2912780900000000 16.5108116400000000 17.2111896699999996
 28.4648483299999988 28.7059370099999995 20.6833991700000013
  5.8899132099999996 11.7712365400000003 19.1724916299999997
 22.0668436499999991 17.4412311799999991  9.7724219399999992
 25.0955241800000017 30.4749367500000012  2.2619652000000001
  6.8491001000000002 32.8253304899999989 25.3294699399999992
  7.4012946700000004  3.5594368799999998  8.4556239299999998
 13.6714708900000002  1.4113131000000001 24.9392478500000010
 28.9386826100000008 12.4386208099999998  0.8998698600000000
  4.1127074500000003 32.2741217800000015  1.1646873000000000
  9.8994853900000006 25.6509595899999994 20.6777948299999998
 16.6976808400000003  7.9218643799999997  2.7745970799999999
 12.6531132799999995  0.8748387399999999  3.4147586500000000
 26.8486749499999995 25.6798944800000015 16.9865841700000004
 33.5201572100000007 13.2822414299999991  4.6317028100000002
  5.0291492800000004 34.9119323500000007 24.8470706600000000
 19.7166358099999997 32.4980913099999995 20.4206320000000012
 34.5620912700000034 25.0679479200000017 22.0006362799999984
 24.6939979100000002  2.0229455500000002 14.6458792300000002
 33.2921609899999993 31.3498034099999998  6.1459538199999999
 10.0458631700000005  0.8223171700000000 30.6847135800000004
 27.9811709200000003 19.5396946100000015 33.6472918899999982
 15.0347200099999991 23.5392573899999995 19.2988946500000011
 11.5223743299999999  1.5452994499999999  1.8478280300000001
 11.4456853899999995  7.6343987899999997  1.3404149900000000
 23.3548056600000002 34.2186594300000024 28.0090150599999994
 32.5161922599999968  9.6432664100000007 24.3785204700000016
 19.7935989300000017 31.0171973200000011 16.0353926800000011
  6.8447060500000001 28.9746144600000015 21.3452606799999991
 34.7963172199999988  6.7035887399999998  2.2159894699999998
  4.1349929500000000 21.8264669399999995  2.4298180299999999
 27.9517115199999999 14.4155177200000004 11.6063846999999996
 13.5075821400000002 11.9330570399999996  8.8896546999999995
 28.4265763400000004 15.4686219299999994  1.1287282000000001
  0.5348463800000000 29.1631500800000012  5.0634586800000001
 16.5500929899999996 12.4128253700000002 22.3560316099999987
 12.8233139600000001 26.4376909200000014 13.2712522100000001
 29.9358841799999986  7.4053347100000000  1.4605469900000001
 12.4132867600000001 30.1105156700000016  2.4368730300000001
  6.5250015899999996 10.7017139399999994 33.7062207099999966
 25.4515363800000003 28.9719615499999996 11.7577306400000001
  2.1788646699999998 10.1785646399999994 26.1359096999999991
 16.2344044499999995 26.6356290400000013 15.0172286499999998
  9.5618881899999995 21.6547900200000001 22.0558491699999983
  7.6569354399999998 30.1139124199999983 24.5259714100000004
 13.0014114500000009  9.7222261099999994 21.4542803800000002
 12.0903137699999998 26.9034684199999994  1.5936994799999999
 10.3071483700000002 17.2426015499999998 31.4041697500000012
  9.8810607499999996 30.9879419899999995 14.3410047200000008
 19.2663857800000002 25.1458487300000009  1.2796238099999999
 16.6373646000000015  9.1868112499999999 17.7366987000000016
  5.6950899100000001 27.3760397299999987 34.0998219599999999
 25.7076839799999988 29.0446182499999992  7.8990041900000003
  3.5634556900000001  5.9998124800000001  3.8483054499999998
 33.4696391700000007  4.2255414199999999  3.6745741600000001
 18.5679596400000015 11.6977473100000005  9.0389611900000002
 17.8207876899999995 18.9787767800000005 21.3014188400000002
 32.9463906800000004 29.9881354900000012 10.5931898600000007
 29.7419463700000009  2.8926443000000002  1.6727435399999999
  8.8007333299999999  3.9250164000000001 27.7506096999999983
 29.4972667999999985 20.5631138900000003 14.2551869999999994
 11.9279682699999992 28.3627001199999995 26.9008584199999987
 27.7274084899999984 24.5545621499999989  3.5260443299999999
  7.2269974000000001 14.1452359699999999 18.9809201499999993
 22.3250225799999988 16.6545454500000005 17.9454008999999992
 13.3529137099999993  2.4206689699999999 14.1834345499999994
 30.9844863900000007 26.2627706699999983 13.3866214499999998
  8.9466909399999999  7.0346409999999997  1.2112868800000001
 23.0985403100000006 32.1669095999999968 19.2495648099999990
 22.4357511699999996 22.6699084299999996  3.1509641300000002
  3.2541214900000002 22.0199597099999984 34.4627690800000011
  0.7600086600000000 33.4655961400000024  6.2743034099999999
 32.2173782799999984 27.4768262099999987 13.0180924099999995
 10.0790518299999992 33.6241679299999987 11.3904100199999991
 23.6212407700000000 32.1936571999999970 13.7965281300000004
  3.2482061600000001 27.6010040299999986  0.0746523300000000
 29.6817659899999988  6.4410126700000001 34.0999138199999976
 27.2515135800000010  6.1887073800000003 28.6048603800000016
  1.8884789099999999 29.6650643999999986  5.7374005300000004
  3.4906336400000000  7.0795908599999997 21.6835894899999992
 16.0886129300000000 26.3175529600000004 24.1125153200000000
 29.0449618200000010 13.6732994300000001 32.1435477200000008
 11.6065279700000001 15.9156385700000005 24.1374018700000015
 27.3132142800000004 28.1924172099999986 34.9560650900000027
 31.5859735599999993 20.4575863399999989 25.6535597099999997
 29.3780885199999986 12.5337805400000004 25.2495378399999986
 28.9824713400000000 13.3958325400000007 23.7575185600000012
 12.6144308800000005 15.7398705000000003 10.0035745200000008
 25.0769713699999990 33.6577892800000029 16.4643665699999993
  6.6089240800000004 21.1870042299999994 34.9800713500000029
 15.0591010399999998 13.3112425099999996  2.0528931500000001
 27.9751433799999987 23.2347795999999995 11.9406773299999998
 31.9639613900000015  3.2991336599999999  8.5394696600000000
 22.8665842099999992 18.6807883299999986 18.0094486700000012
  4.8037159899999997 26.0546959200000003 16.2742823799999989
 31.8639394500000002  2.2303136600000002 34.8817420800000022
  7.4390941699999997  8.8557264000000000 18.1935554500000016
 19.0863725299999984  9.6630434199999993  6.7708405400000000
 12.5170254799999991 23.6471845800000011 13.2312897399999994
 23.2867355600000003 10.1645012500000007 34.7724752100000032
 25.9907825599999995 27.0825224499999990  0.9547710900000000
 16.8376908199999988 16.0696180599999998 22.0707940100000002
 13.8349434400000000 18.8943994500000017  3.1714875800000000
 33.1918375699999970 25.2139571599999996 25.9780487099999995
 23.0646243999999996 22.1423440400000011 26.3763025999999989
 31.5178230600000013 30.0521663699999984  1.7602080000000000
  8.8157752400000007 11.7345093400000007 31.8984130599999993
 21.6282477600000007 30.9600407699999991  0.4052289900000000
 20.6837185499999983 11.2577068300000001 33.2786124100000009
 13.6387723199999993 11.8463246699999996 21.1786826899999987
  0.1199569200000000 21.1160010500000013 31.6296480600000010
 19.4948723000000008 15.3187100699999998  1.5601976799999999
  7.2424164700000002 28.2935792900000003 20.1871632400000003
 30.6526355700000011 13.8460717500000001 30.9278763199999993
 19.8172426299999991  8.3969093600000004  6.8556452900000000
  2.8303114900000002  4.0452070200000003 17.7943915600000011
 30.3389613300000001 26.9230096000000003 15.0223548400000002
 25.7177698100000001 23.5571631299999993  5.2407541899999996
 21.3557028600000010  0.2979129100000000  2.0223374199999999
  4.4249931599999996 30.8600464800000012 34.8012561999999974
 19.7129177300000009  5.0083285599999998 34.9781360699999979
 17.5329451899999995 11.2098531599999998 34.0020102599999987
 26.7863734800000017 28.5791117399999983 24.1310733800000001
 25.9503124800000009 11.9017704400000000  8.0557048800000004
 12.2318410100000001 25.5518028000000008 34.1496254099999987
 22.7542333899999996 20.4005070999999987 11.3228863799999999
  8.7514443100000001 15.5245701700000005 31.4507941299999985
 23.4970263499999987  9.5218663800000005 14.0082880299999992
 27.2969836800000003  0.4046297300000000 10.6118465600000000
 28.3050785599999983  3.4553997900000000  9.9042480499999996
  0.6969903900000000 24.3174092699999989  7.6976812600000004
 14.9288924600000001 29.8955308299999984 29.1866926100000015
 15.7426572100000008 21.8397378499999988 15.4740242699999992
 21.9259598400000009 29.6070999199999996 11.5283296499999999
 31.6364619800000000 29.0165684000000006 26.4650514000000001
 18.1188131599999984 22.8928259199999999  4.7251840800000000
  1.1688649200000001 10.1127789099999994  5.4750624900000000
  4.3752022899999998 34.0249655699999991 27.5964029800000006
 27.7448412500000003  2.5469045100000001  0.8241332600000000
 26.2076710900000016 32.3279960899999992 31.6303350700000010
 31.0415453200000009  5.2521360300000000  2.6503247299999999
 24.0078003899999999 19.1011315199999991 12.7175083200000003
 33.1623907000000031 20.3004270099999999  9.2767093900000006
 23.6547334099999986  0.1044444100000000  5.3972575999999997
 26.7085250999999992 15.1813342599999999  2.6849626799999999
 11.1676993200000005 25.5225548800000013 32.5798723899999985
 29.9151893000000015  9.5864973300000003 15.2606003900000005
  4.9107474800000004  4.9328349500000002 26.1570165800000005
 20.9777394400000006 17.8667021300000002 20.6626598199999982
  7.3235401600000003 26.7394554400000004 10.0276028900000007