Na Cl 
 1.0000000000000000
    35.0000000000000000    0.0000000000000000    0.0000000000000000
     0.0000000000000000   35.0000000000000000    0.0000000000000000
     0.0000000000000000    0.0000000000000000   35.0000000000000000
 Na  Cl 
 13900 13900
Cartesian
  1.5258999600000001 25.8006585699999995 16.6686180399999984
  9.4633279300000002 10.1524735400000008  7.6228356899999996
 16.9994962799999989  5.5339502800000000 14.1022807399999994
 32.0324006800000021 33.5581939200000008 22.5652051799999995
 28.4035365700000000 13.2391238399999995 14.9543631700000006
  2.9817287399999999 28.9149023400000011 32.7637085799999994
  4.6501774400000002  0.5322884900000000 21.1725906899999998
  2.7316767500000001 26.2910627800000007 33.8921645900000001
  0.6102370700000000  1.2544462999999999 13.4790401000000006
 22.2269058599999987 12.6067674299999997 26.9402159099999992
 24.2088120899999986  2.5048626000000001 29.2257065999999988
  6.4508612599999999 24.6252366100000017  1.3517161600000001
  3.2935090599999999 19.0067510999999989  1.4657388800000000
 29.6733516799999997  5.0217289599999999 15.1986599400000006
 13.8776314299999992  1.3514047400000000 33.0593898300000006
  4.1647967100000001 32.7383612900000003 33.6381239199999982
  0.9486924500000000 19.6740274399999997 16.3791994999999986
 10.2060575399999998 33.2090944199999996  0.2498494100000000
 34.2189776199999969 33.3568123100000022 32.9445194199999989
 33.5379488900000027 32.3069144299999991 27.3107588499999991
 21.9240112399999987 31.8568751200000015 23.5000657599999982
 25.6052046500000010 21.6745215299999998  3.6833764300000000
 26.5077046400000000 34.9918147799999986  2.4309769100000000
 12.4290010399999993 14.2204249199999992 22.6815984200000003
 24.6246467299999985 26.4376237699999983 12.1426897599999997
 32.1868339299999988  4.1178741900000002 14.1115236300000007
 12.3776519199999999 26.1958471599999996  8.6032148999999993
  9.2328291799999995 21.1599922999999990  0.9906260500000000
 24.4519623400000015 29.1311093499999991 26.5548212399999990
 21.8805266100000004  1.0107912200000000 13.3680307700000007
 11.4932205100000004  1.5571773900000001 26.4803897900000003
 30.9112380100000017 20.1772731999999984  4.4307267799999996
 22.2250354799999990 16.1713726599999994 17.2603600700000008
 14.8716835199999995 13.3849788699999994 16.3399168800000005
 14.9830558499999995 30.2197495099999998 18.3299428700000000
  1.3498257199999999  6.5209151700000003 12.0212931100000002
 21.8733035399999984 19.6125340299999991 32.8595153400000015
  4.8743115899999996 22.5548547200000016 29.4433051699999986
 23.6300610199999994  5.4355391700000002  5.1069068700000004
 11.7836852200000006 18.3975602699999996 17.7955007599999995
 13.9813337700000009 29.2766776799999988 23.1217967999999985
  3.0387607999999999  7.4528427300000004 29.9277917699999989
 11.3963026799999998 17.6591696599999999 32.6645582000000019
 18.2296597300000016 30.8911169399999999 32.0024402100000032
 20.0125306599999995  0.6027444199999999 15.3255039499999999
 10.7449685800000001 25.6869782300000011 31.0430742799999990
 30.9493933900000009 31.4546697699999989 18.6348020000000005
 15.1172916100000005 11.3201721899999992 33.1339640699999975
 32.5341979800000018 32.2653691699999996 29.0595854600000010
 14.4528344499999992  8.7885293600000001  8.8129004599999998
 33.4180665299999973 12.4441107500000001 23.1694372199999989
 33.7313554199999999 27.8905392799999987  1.2937586999999999
  9.2024989700000006  1.4001135800000000 11.7090017300000007
 23.1920536499999983 28.8457055500000017 24.7732586599999998
  4.1583357899999998 29.1495618000000007 21.6851513400000009
  7.3386467499999997  0.6358745400000000 12.1434235699999995
  9.5199396600000004 16.6259417200000001 27.2024514500000016
 21.6015421699999983  2.1192507500000000 23.2473981599999995
 14.0208446099999993 28.3354220699999999 23.4387996100000002
 10.9051017399999992 22.0449009700000005 33.6505808000000002
  0.3115443200000000 21.1254448100000012 15.3509993399999995
 19.2458857999999999 30.6025816699999993 12.5901487700000008
 27.6303236100000014  2.8488444500000001  0.5287163700000000
 31.1360816500000013 19.1242521699999983 16.3062119599999988
  8.5044225499999992 28.8298502600000006  3.2933682800000001
 16.6406048800000015 28.6462495600000011 32.5162924600000025
 11.3273445499999994 13.6797731200000001  0.9468288600000000
 23.3525846100000010 31.8895390300000017 12.4824201299999995
  2.0351314899999999  9.4550364099999999 10.7969251499999999
 23.9209372900000012 29.1930237400000010 17.1499345299999995
 13.9496433999999994 21.6565613299999988 16.8263403999999994
  0.3031195800000000 19.5308504399999983 25.0032910599999987
 20.3127864799999998  7.0023239500000001 18.0585601800000006
 25.2208676599999997  2.1227381300000001 11.8597819199999996
  2.3546497199999998 24.5978196800000006 30.5552862000000012
 22.6951328399999994  7.0976388100000003 10.0154265500000008
 14.2739956800000005 13.0454317300000007 14.5710608300000004
  0.8193943299999999 16.5604720699999994 11.8540654199999995
 11.2775537099999994 16.8452400599999983  2.9496208099999999
 14.2768806799999997 26.5336242099999993 15.6221239399999998
 26.0370004299999991 33.8663024800000017 20.9457801400000001
  5.7268575300000002  1.2945507400000000 22.5143313099999993
 13.3662773500000007 17.0234966499999985 23.9081915900000013
 24.9759837299999994 16.3584881799999984 12.1108319200000007
 21.7521595400000010 13.5453568099999995 16.8118880200000014
  2.4019666599999998 14.8535920899999994 24.3223154599999987
 20.1558773199999983 29.8301905100000013 16.0118849800000014
 31.7508808100000017 27.0538337700000007  8.7841353600000005
  4.9630062099999996  8.2453250199999992 14.1776921399999996
  4.4718529399999998 13.4322808800000004  6.3447759000000001
 26.6485972400000009 22.9738644200000017  1.7392651100000001
  6.8286527200000000  4.1662866200000002 22.7792993099999990
 21.6835552699999994 15.5133747900000003 18.2901244299999988
 32.1213339800000028 23.2602654499999986 20.2813496399999984
  3.6433526100000000 18.8272362099999988 29.3589487499999997
  5.8515728800000000 32.3853626300000030 15.7897217100000002
  7.8527180999999997 30.6330342999999985 34.4074625699999999
 16.2233839400000015 16.4138783900000007 33.0540508599999967
 19.4328513200000010 22.9321408600000005  0.4913749300000000
 33.5383959099999984  4.8200723900000000 20.9566205299999986
 12.9212120299999995 26.8105189899999985 14.3926366899999998
 12.0448958899999994 33.5651951099999977  0.2342756800000000
 17.4713796700000010 26.4780600499999998 26.7553256300000015
 31.7578588300000000  4.3333858699999999 31.2162625700000014
  1.7250567800000001 13.0292216599999993 22.1284162299999991
  2.2916329100000001 15.4742858699999992 26.3226967000000016
  5.5634119300000000 19.2642589899999983 24.4008246000000000
  9.6590379899999999  9.4515427200000008 22.0785332200000006
  3.9077917900000001 18.2565370000000016 27.6174110400000004
 30.8273815499999984 10.8016446800000008 33.2421680300000020
 31.1180782399999991 31.5410464700000013  0.3679540500000000
 24.2036383499999985 20.5496738900000011 33.3690304300000022
 28.2944004599999985 33.9884958499999996  9.6497587599999992
 28.4954433599999994 17.9165154000000015 17.8743847500000008
  9.7844477699999999 17.2136625599999995  0.0266257600000000
 27.4991155399999982  2.6348094500000001  8.2424900399999999
  1.5301691100000001 27.5523032299999997 21.5603583500000013
  9.9428660499999992 19.7496891499999982 28.0255600300000012
 30.5874051000000016  2.5175046299999999 31.7003228899999989
 17.3268443599999991 12.2731411900000005 19.6839971799999987
  8.9405913899999998  9.5195345099999997  9.8164917500000008
 30.7768106699999997  0.8568865500000000 16.6922187800000010
 21.1209791399999993 10.2963920600000005 11.4614154199999998
 27.0089175799999985 23.8777575099999986  3.4703942099999998
 16.9155295899999984 29.3057810200000013 22.2615795600000013
  0.3676532600000000 19.1483907799999997  2.0038675100000001
  9.0012916000000001 14.7079377999999998 26.3106703999999993
 13.4373297899999997 21.2017150200000017  2.2242722300000000
  3.3434447299999999 18.2756371900000012 33.6342599199999981
  6.0064977600000002 11.2079279100000004  1.6443170000000000
 21.0358739099999994 14.9327891000000008 25.3863931399999991
 19.1094299200000002 12.1886521900000009 34.6774199700000025
  3.3975083700000002 16.9231736499999990 17.7794673299999992
 24.5074658200000002 16.9780926100000009 30.8024788399999991
 12.2619346000000000  6.3348684999999998  0.1349605400000000
 28.2817751199999989 31.7943766299999986 23.0881027100000011
 31.7422862499999994 22.6049625200000008 31.6050912699999991
 26.7689023599999985 14.9419548199999994  4.4346193300000003
 17.6471431299999999  5.5346411399999997 25.7135995699999995
 23.4679566999999984 10.9482823000000007 12.7806787899999996
  9.8684698199999996 29.3723479900000015 21.0526482199999982
 16.8586453300000016 18.2520476299999999 22.1645198400000005
 14.0848725600000009 19.4531340800000017 13.8245631800000002
 19.4334369500000008 32.7747393599999981 15.0444995400000003
 12.9036948299999992 12.3989819600000004 34.6897348199999982
  0.3731219600000000  6.0607626500000000 13.2378646300000007
 28.7908041300000015 12.0449882200000005  0.1169684800000000
  5.8892197700000004  0.1166378900000000  0.3329671800000000
 31.1793235300000013 10.8905280300000005 22.1046657899999985
 23.1179996400000007  9.2199240299999996 14.2631643300000004
  6.0028305399999997 19.5728046800000008 30.1282862999999992
 21.1079115299999991  0.6691003800000001 10.5700925199999993
 26.5449525100000017 31.0169090099999991 11.1896961499999996
 10.2231772099999993  5.9393774099999996  3.1160802799999998
 11.9612734799999991 28.1233737099999992 29.5418602700000008
  0.0455439300000000 30.4567931999999999 12.3232962700000002
 22.6404336700000002 32.7687518500000010 19.4123392199999998
 28.1853490600000001 21.1617192199999984 30.0149512399999985
  6.2854249199999996  9.1366292999999992 14.3285633099999998
 20.1634867699999987 17.7220645300000008  4.7386006800000002
 16.6616681799999995 32.6571146400000032 33.1257732300000001
 34.8706714799999986 31.3755783699999995 19.3457448700000008
 28.9340898899999992  5.2487843400000003 16.3183493199999994
  2.4970154999999998  2.3394884999999999 14.7832109299999992
 31.4261605599999996 29.4806055200000010 20.5369131399999993
 28.8991595600000011 13.1747081399999999 17.3197508700000000
 33.0528451699999977 34.1688551700000005 30.9487695100000018
 20.9691741600000015 13.9100703800000005 21.5528009900000015
 22.9261757700000004  5.2361325599999997 13.6799271200000003
  3.5351265700000001 19.8721903799999993 21.9036687599999986
  4.9607991900000004  6.1520522599999996  7.5423429000000004
 29.1571765200000002  9.6657764000000004 17.7038799900000008
 14.1110156000000000  3.8392004599999998 20.4420497899999987
  9.5307799499999994 23.8186526699999987 25.0954841900000005
 29.8027298899999984  9.4813415800000005 32.9079767699999977
 14.3654995799999998 10.9514486099999999 30.9967809500000016
 22.8973502199999999 10.7650921099999994 13.9031735899999997
 10.6384807400000003 20.9458122499999995  6.2664856899999997
  5.8250432099999996  6.5012966499999996 32.2928734799999972
  1.3245162200000000  1.1440889100000000 13.7022717200000006
 29.0807162499999983 19.5980143600000005 33.8273346599999982
 31.0135997299999993 25.5707421100000012  2.4625811000000000
 18.6006129599999994  0.5020517799999999  2.9842077800000002
  0.5802226300000000 21.8018242399999984  8.2600003599999994
 15.8261106700000003 24.4420742299999993  2.9415234600000000
 18.1848500000000008 12.7740036299999993  2.6789535000000000
 15.1714954500000001 12.3239936399999994 34.3610477499999973
  6.1295192900000002 13.8307520600000000 18.4499149799999991
 22.7211229400000008 23.9132124600000004  4.3617754099999999
 18.3593169500000002  5.0400160999999999  7.5505898299999998
 27.7632717999999983 32.3090822099999997 28.7446991400000016
  7.1583983599999996 16.2011832099999999 28.2862063500000005
  1.2701847700000000 32.9954509599999994 14.5443474100000003
  6.8468473799999998 29.9639778399999983 24.5755923299999992
  6.9802980300000002 32.8689854300000022 24.0380483900000002
  2.4793430100000000 20.3180138499999998 24.8587190800000002
  5.4915410400000004  1.3301792200000000 26.3221698800000006
 31.7091273300000012 25.3030210999999987 17.8756124700000001
 30.4187877200000010  3.5651688400000001 34.7926727999999983
 15.4516836899999994 31.4477551999999996  7.4216318499999998
 30.3664878499999986 34.5612972999999997 11.7237926699999999
 26.7834074800000010 13.7295223300000000 32.0817627699999974
 23.1869105399999995 12.4054919399999992  4.1030423100000002
  9.8320754200000007 12.6915016000000005 16.0674156600000018
 20.0550414299999993 15.0813857599999999  2.8504393700000001
 27.3345398000000017  1.6104282200000000 11.4671161000000001
 17.8203083500000012 10.9224296600000006 33.2753710799999993
 29.1618029400000012 17.4220854699999990  2.9905063300000001
  1.4399280299999999 15.8703823499999999 33.5161700499999995
 16.2700112099999998 30.0783283499999996 21.4645727999999991
 10.0751056299999995  2.3003060099999999 21.2431916899999997
 34.3227779600000034 27.9291838000000006 20.7921300600000016
 13.3299955299999997  2.2349098199999999  7.1293762799999998
 18.4271801500000016 25.6167227599999983  5.2594129799999996
 19.9538971799999985 30.1499592800000009  0.3656853600000000
 21.0738412400000001 23.0496629700000000 15.6854825000000009
  5.9044240300000004 10.6546770700000000 13.1575398200000002
  8.7718079499999995  7.7761980399999997  4.5605229800000000
 33.7096754200000035 13.5147046799999995 26.6414837099999993
  8.4166431999999993 23.5223435300000006 15.0277103400000005
 10.7277469700000001 16.2433073499999985  1.2665741600000000
  7.3119359800000003  6.7079770300000003  5.9700106999999996
 27.9698296999999982  3.9276886599999998  2.6632862600000000
 31.8521277599999983 13.7112485900000003  4.9549975300000000
 13.6434350500000008 20.2129340199999987  8.7820284300000004
  4.5518941200000000 28.6844703400000007  9.8929417199999996
 20.6714534199999989 15.1175581500000007 15.7999076899999995
  4.0485193400000004  3.4645691900000002 24.0143808300000003
 24.6986078099999986  9.5014967800000001 21.6564043700000006
 14.1881887199999994  5.8878033399999996 11.3108183199999992
 15.9235716400000005 17.4685634000000007 14.1450005399999998
 15.0241035200000006 20.1077821000000014 26.4937767000000015
 10.9049537000000001 19.5568590499999999  7.1300411500000003
 29.6015919099999998 23.9552556900000013 10.9823898199999999
 26.0257561600000002 19.8838640099999999  8.1023327399999996
 25.9064261199999990  9.3037603799999999 23.3007719599999987
  1.0743193799999999 31.0858963199999998 15.6594147299999999
 22.7833337200000017 19.4898880500000011  1.5484232000000000
 19.3487174300000007  8.8937963199999999 28.0347741200000016
 10.4486345400000005 15.2006501600000004 12.3271814600000003
 17.9387281600000001  6.2042118999999998  9.1893816000000008
 25.9365352099999988 25.3473267900000003 27.5213854399999995
 26.9250103799999998 13.6494069200000006 15.5821283200000007
 18.8306925900000017 17.4503310999999997 22.7148212899999997
 23.0014617100000009 10.5669261500000005  8.3277546699999991
 34.5727382800000029 29.0122069200000006 23.1616333700000006
  7.5721287600000000  4.7680295700000004 21.2730613499999990
 11.3421426899999993 17.3922008800000008 25.7202282000000011
 29.8754230800000009  6.2356546399999999 12.6475130399999998
 11.7516349499999997  4.7286779200000000 24.8897221600000016
  1.5603276699999999  9.4272257100000001 33.3825173399999997
  9.9689072099999994  2.4234633200000002 26.1480677300000011
 10.5743316699999994 27.7923050700000012 30.2712703199999993
  9.2402986299999998  6.6991423299999999 32.4851590900000033
 13.0688180500000009 22.6249820499999998 18.0733844499999989
 29.3723938699999998 21.8237412500000012 26.6192221300000007
 19.2664168999999994 25.6687675900000016  4.9769386000000004
 32.4069670599999995 28.8953757200000005 19.5796664000000007
  5.4531244200000000 20.6620721100000004 32.4458795199999983
 17.8970399499999999  5.5504605400000004 11.5903116799999992
 23.3683554099999995 16.9494129700000009  3.7838703400000000
  0.5087846700000000 11.1439591000000000 11.5206712800000002
  7.9222713400000000  9.6144524899999997 30.1030610000000003
 17.1461710899999993 20.6975531500000010 33.7758113200000025
  5.0607859199999998  6.6289248199999999  7.3394642799999996
 14.3761223400000002 14.4881103000000007  6.6697715400000002
 28.8503011399999991 32.0113055699999975 29.0126312900000016
 30.2940384700000003  6.9045972700000000 20.5663055700000008
 32.8977871499999992 18.1086135199999987 26.4674772599999990
 23.8903229500000016  4.6578466799999996 24.4291857199999995
 31.3243707899999997 33.6999137899999965 24.4510345999999998
 13.5385947400000006  8.1618146700000000 10.6190908400000001
 10.0597094699999996 23.5370983199999984 18.0115031300000012
  4.3330701899999999 25.9106494599999984 10.2854077000000004
  1.8472258100000001  1.3242333500000001 31.3898826399999997
 14.7574862699999994 19.0716956599999996  7.9888761400000003
  9.0412962599999993 22.0662728699999988  7.8481764500000004
 24.3016722700000010 23.2059234500000002 16.9554835600000011
  0.8122157900000000  0.9108462400000000 13.5926748199999992
  7.0857393499999999 20.0212865300000011  7.7626308499999999
 21.5366719000000018 31.8446541799999991 28.1027960599999993
 33.6933504799999994 19.1414513100000008 25.3721431300000013
 24.6095779400000012 18.1764319299999997 11.2914437200000002
  5.2946824899999996 17.7285833500000010  9.3003744000000008
  1.3924627100000000 23.1208156299999992 21.5483268499999987
 17.7294024999999991 23.0677405600000007  4.5155853600000002
 13.4430889100000002 12.9953933900000003 13.5767342400000004
 19.1724102999999992 20.6999682599999986  4.3665319699999996
 28.3029005799999993  1.8499837500000000 12.6769227200000003
 16.0400729999999996 15.5068782400000007 14.1025294300000006
  1.2121905799999999  3.2870186000000001 14.9216032700000003
 12.3862422700000003 30.5737723700000004 18.3922094800000018
 32.8646873300000024 21.7999166200000012 11.1986917100000003
 21.4116480799999991 30.5693031099999999 13.2773391600000004
 27.2392482499999993 10.0452716300000002 25.8802846399999993
 24.9439906100000002  3.6502535200000001 29.8108589500000001
  6.1064262700000000 10.7063477799999998  6.5871647199999996
  5.4774389000000001  9.3156299300000001 12.7922634199999994
 29.5712407199999987  3.8428381699999998 11.5810986000000007
  8.5241091999999998  9.7032677199999995 17.8205609400000000
 15.1676871400000000 18.3177935800000000  7.1567211999999998
 23.0131447099999988 31.9230958200000003 16.4713679699999993
 19.2815555699999983  0.1045409300000000  7.0194291599999996
 25.5458735300000015  4.4964656300000003  7.0978064500000002
 12.8329977500000005 14.1931051000000004 18.5174751600000000
  3.2050545900000000  2.3525350800000000 24.0571420399999987
  8.3863488000000004  4.3642734799999996 25.3443052900000012
 11.7390884599999996  3.8597978099999999 16.6217323999999991
 26.4563778499999991 12.3425114300000001 30.5895348600000005
  3.3123827299999999 21.2166191799999986  7.7185686200000001
 15.9827595799999997 32.2402064099999990 26.1491612000000018
 28.9523684900000013 32.4571786099999997 32.8009551399999992
  0.6530839200000000 21.3813783400000013 11.8256784400000008
 24.1775052300000013  1.3304265799999999 30.4794981000000007
  8.9245000399999999 19.0721444899999995 15.5324395499999994
 23.7114648700000004  8.5901503899999998 34.6575828499999972
 19.9949605599999991 20.3020535799999990  1.6144911399999999
  9.7525400799999993  5.9410579400000003 31.3608208300000015
 16.3156591199999994 27.2827498000000013  6.1759614400000000
 24.3839854500000008  6.6435163700000004  7.5796450499999999
 26.0944340900000000 19.1537037199999993 21.2983580000000003
 16.5028437699999984 23.2952027000000008 12.4718430700000003
 34.2665496899999980 27.9005741799999996 29.9502944400000004
  4.5986708099999998  9.8602456699999994 31.1489230399999997
 24.9494936699999990 26.1400549099999999 15.9028652699999995
 19.4566103499999983  2.2501315100000001 17.9602390700000001
 17.7380961699999986 29.1823371099999989 12.5397689000000003
 20.8959421399999989  8.0995915299999997 14.8347816699999999
 23.1755422399999986 31.3385000100000006 26.1697229799999995
 24.5340773500000005  9.2380734300000000  4.3001715799999998
 32.9838049800000022 28.8102567000000001 23.9843246400000005
  9.5441952200000006  4.2889942500000000 20.1263679499999988
 23.8661659399999984 18.6509321499999992  6.2166181900000002
  7.7019767100000003 17.1226487100000000 10.3569233599999997
 13.8108815299999996 34.4858251699999983  3.2637035999999999
  8.0663687700000004 16.4598841600000014  1.2729979600000001
 10.2767390400000007 31.1531009499999989 25.1677177900000011
 18.8329643400000002 20.6316257199999988 10.7334782000000004
  7.5680296800000004  5.8747706300000004  2.2699956200000000
  1.8164032500000000  8.2894170200000001 20.2317877300000006
 10.6563409300000007  6.1220572200000003 28.4156891199999997
  7.4870129499999996  9.2266506300000000 22.3171813999999991
 24.8677613700000002 17.4653489300000011 30.1194561500000013
 12.6994844199999992 10.2345899500000002 22.7533571499999994
  5.6735889400000001 16.0092484500000012 22.4386433099999998
  1.2780791499999999 25.6763194699999993 26.9013168500000006
  0.4323125000000000 20.8762333300000016 26.8536388899999992
  4.1088733900000003  2.8351234999999999 14.9206764300000003
 31.8087934200000007 20.3910079700000004 26.6710189299999989
 14.8151095300000009  7.5459161899999998 19.2134080099999984
  9.7484270899999999  6.8141427400000003  5.2970900800000003
 23.1930255400000007 10.1802773599999998 19.9216480300000001
 13.1383954799999998  2.0129018699999999 20.8416990300000009
  6.4356158299999997 13.3952681200000008 14.2712937800000006
  2.6344893699999998  2.8629177399999999 27.0584220900000005
 15.9000126399999999  6.5124287900000004  9.3907222299999997
 14.8685787400000002 31.2029357599999990 22.7412949100000006
 12.9435067499999992 16.5179045199999983 31.4213505399999988
 18.6385547000000003  8.1888666499999996 10.2818386799999999
 11.8627621300000001 17.4430999200000016  6.1804244099999996
 29.3931215200000011 20.1934376399999991 31.1063871899999995
 10.0495588700000003 27.9359837400000011 30.0788003000000010
 29.3965589200000004  7.9656997900000004  4.5163240699999996
 25.8586454500000009 11.2540590100000006  6.9697313899999997
 30.2754403699999983  9.3262179900000000 15.7457431999999997
  3.7059478299999999 20.8652057299999996 16.5127317699999985
 14.4828711299999995 23.6150562099999988 33.2497687400000004
 18.8631295799999990  2.6188566000000000 20.1228970300000007
  0.5304443300000000 25.1779378999999999 15.6023601900000006
  8.8676536200000005  8.6544601300000004 30.5114222200000000
 20.4732189600000005  8.3911151099999994 14.4716630100000003
 10.2401787800000008 11.6848148900000002  1.6838601700000000
 20.6378074600000012  9.6299779900000004 11.0401210100000000
 16.3138943000000012 32.6215538200000026 30.4549887199999993
 16.9953718900000013  6.2152890300000001 20.3627404900000002
  6.5793733300000001 14.5274893499999997  3.5135751700000002
  7.6578815599999999 11.0154120800000008 21.0308538700000014
  0.5609674800000000 13.1805161999999996  9.9357458600000008
  5.0807073899999997 26.4490237700000002 28.7424617799999993
  4.5550811099999997 12.2481806800000008 20.1726824899999997
 32.2745828299999999  8.9136928999999991 12.4365927599999999
  1.8145447200000000 12.0531642100000003 32.5309511900000032
 12.6966356099999995 32.3547802900000008 26.7922553500000014
 22.4357036600000015 21.8714231099999985 23.0081288199999996
 17.6211245500000011 23.2402502200000001 33.8853721099999987
 26.4490235399999989 28.7386268600000001 10.1015649199999995
 27.0015728000000017  5.4341178499999998 16.2186364999999988
  6.6236915999999999 24.3847308200000015 19.1708334600000008
 29.1979253499999984 29.5314321799999995 34.7806176400000027
 22.8407579699999985  4.6192357599999996  5.4953694999999998
 30.6752219299999993  8.4550340899999998  3.7579263500000000
 19.4681389699999983 21.0117032399999992 28.6963271599999992
 34.1704993700000017 23.5829358599999992 18.4030178000000006
  4.5202354299999996 21.5968601500000013 28.4285905800000016
 14.3219343499999994 13.7505419300000007  0.3582405000000000
  0.9480409000000000  8.7234107000000005 34.3637185299999999
 16.0172688600000015 17.2377577899999999 19.9950984900000002
 22.6202632799999996  8.7650280800000004 33.8270008599999983
 25.4033843300000015 24.6803784999999998 18.1214454300000014
 32.1332956199999984 14.2994214199999998 20.3758762900000008
 17.3527585199999983 27.8125079399999997 19.8209224800000001
  0.2440489300000000  6.7303567800000001 32.1064521300000010
 18.1409695500000012 10.2751536699999999  4.5077963600000004
 22.5334060399999991 18.9552586299999994 11.0317350800000007
 15.3715104100000008 13.9754204400000006 34.8914145199999979
 30.0038580000000010 29.8414301799999997 29.9170771900000005
  6.3163592399999997  4.0497351200000002 23.8981236300000006
 30.7639323000000005 29.4101139399999987 25.7849304400000001
 32.3258743000000024 30.9694052800000001 17.7944931000000004
 32.0455011399999989  8.7377142200000009 29.7628594699999987
  4.3790357200000001 28.4532808599999996  9.2913330300000005
 24.4342684299999995 11.7494260500000003  2.6036300899999998
  9.2109530599999996  3.4880431500000002 33.5411856200000003
 16.7066375299999983 18.4570290700000008  2.2876575300000002
 18.6601019199999989 20.3330511999999999 32.5915135999999990
 15.5690205899999992  8.5290026700000006 21.9478039100000011
 11.7402426799999997 23.2587453699999998 29.7333802799999987
 33.9223163999999997 17.3717554599999993 32.0940550899999977
 19.7839626499999994  9.0602684599999996 25.9320050299999991
 19.2085325800000000 32.8071235800000025 34.3260626100000010
 13.1342403000000001  2.1768002200000001 10.4812956899999996
  4.1367115500000002 15.7110914400000006 16.3137622600000007
 30.4022302899999985  5.2844049599999998 19.9941570400000010
  6.7973794999999999  3.5572275200000001  6.3229062699999998
  9.0856694099999995 32.8458128199999990 19.5760784699999988
 15.1509101400000006 16.3467400699999992 24.6603401700000013
 31.3373191099999993  6.3223635900000001 34.9648578099999980
  4.3651997199999997  5.9116189900000000 26.5804172100000002
 32.0720961099999968  0.7193893500000000 15.7768058300000007
  0.7756488400000000 16.3299778499999988 22.9377347500000006
 24.5080227000000015 26.3374910799999995  9.2125634900000009
 30.5546411999999989 11.8546331200000008 20.8188369999999985
  7.1935211499999996 11.5100152100000006  3.8257112000000002
  3.7280981400000002  8.1453602400000005 14.0695198399999999
  6.4199309800000002 29.7800636700000005 13.5301569100000005
  6.3472601800000001 33.4018467900000005 19.8390298600000001
 24.5748828900000014 30.0567070700000016  8.0756824900000002
 32.9956044300000002 17.1236056599999991 26.4403078499999999
 22.2539604400000002 12.3130690200000004 25.7510595799999997
 23.0584317100000007 23.0617680400000005  9.1354341399999992
 29.2415213600000001 27.2495053399999989  7.4361985900000001
 30.1897579399999998  4.2616346700000003 15.2938727599999993
  4.1194663699999996  5.8713280100000000 14.4098042100000008
 20.5794165800000002  8.2545355800000006 28.9794803099999996
 33.1254975100000024 30.2367173700000009 23.5089077499999988
 34.2124998099999971 29.4842286800000011 11.4313487800000004
 11.6789203900000000  7.6149779799999999 24.9349543500000017
 26.7777971000000008 24.4359384800000008  4.8180341599999998
 21.7000935699999999 13.4725531600000004 18.2009253899999983
  2.9529491800000001  0.2168723900000000  4.9742899500000002
 22.8912048199999987 12.4794404399999994 21.9554468199999988
  0.1947543900000000 18.2370506799999994 15.1107802499999995
  6.8835812499999998 17.3500908900000006 17.9776254900000012
 29.9516756599999994 27.8128168500000008 25.0128575799999986
  6.0973252200000001 32.7450477499999977  6.0174688300000003
 20.5985964000000017 15.6097718699999994 28.4357468900000008
 29.5979293100000014 32.3979265799999965 16.9519732699999999
 11.8146964099999998 14.6024866099999997  3.9923720000000000
  4.7962608099999997  5.7555023700000003 27.7283338099999987
  5.1062622400000004  0.9494857300000000 33.0066779200000013
 28.2358797400000014 30.4307094999999990 28.9345832700000010
 13.5409790900000004 13.2356427700000001 26.4479875799999995
 11.3272640300000003 12.3265938800000008  8.0632588999999992
 34.1923770900000008  6.2817294600000002 17.0270715700000004
 13.9918153699999994 30.4408929199999996 25.0873786099999982
 33.5723681400000018 15.7913155700000001 34.6407365299999981
 16.8589128499999994 22.7482185100000009 24.3084302000000001
 31.7864203900000000 29.3674227899999991  8.2747840999999998
 19.2963905699999998  4.4363084199999996 11.0356932200000006
 11.8958838999999994 14.1207709999999995 27.7982319699999998
 24.8847112800000012 22.3424507400000003 29.5696415500000001
 11.9655208599999998 29.5090573300000010  8.7266270099999996
 18.4202162099999995 13.5738400699999993  5.5299992099999997
 17.6967897900000004 34.9460520200000033  3.2962206100000002
 29.5798558299999996  8.6368522999999993 14.5765998000000003
 23.9129218500000000 34.4774557499999972  2.5988036200000000
 33.0925140100000021  0.8830083800000000  0.7219114200000000
 23.1652826400000009 33.9053889200000000 12.8715715900000003
 32.5037466699999982 10.4702431199999992 28.3761545099999992
  8.0288889300000008 16.5363188699999988 25.9112488499999998
 20.3594710799999987 21.6304347600000000 32.7169361799999976
 23.5464438399999985  0.0816470200000000  7.2415412400000001
 13.5836443500000001 30.3105255800000002  4.0033837300000004
 14.8703670100000007 26.2583068299999987  8.3629674600000001
 31.3941726699999997 16.8600261899999992  6.4601673699999997
  6.0330348799999998  2.2171766599999998 24.0880865799999988
  3.4712043000000001 30.5305946100000014 27.7035464000000005