Na Cl 
 1.0000000000000000
    50.0000000000000000    0.0000000000000000    0.0000000000000000
     0.0000000000000000   50.0000000000000000    0.0000000000000000
     0.0000000000000000    0.0000000000000000   50.0000000000000000
 4900 4900
Cartesian
 26.2055304000000007 36.3494722300000035 25.5798400000000008
 20.3709357500000010 24.3171720600000008 48.7108896200000032
 33.9219233900000035 25.7663780699999982  5.5162401399999998
 11.4480832600000006  7.9354263899999999 20.7113015300000001
 44.8448635399999986  7.6214847199999998 44.2936729099999980
 43.7606782599999988 35.7195551200000025 38.5629150299999992
 26.9128499199999993 24.2686260599999990 32.7981981800000000
 39.3168690600000019 48.6182320200000007 26.6254896899999984
 44.6051991499999971 29.5821468900000006 37.1428629799999968
 10.0980867700000001 18.5443076900000001 24.1792737399999993
 31.0537248099999985 19.9528197399999989 47.0413452199999966
 23.8891686400000012  5.2573729800000004 10.6676691500000000
 41.5153944099999990 49.2338940300000019 24.0569030700000006
 24.3699734899999996 36.1444652200000007 30.0270346400000001
 14.3711373299999998 35.7050664400000031 45.0516966100000005
 33.8650058200000004 19.1527853599999993  0.8635056000000000
 12.9385793400000004  8.7029825499999998 21.0276689200000000
 12.0316148999999992 15.3516653800000000 15.4399808800000002
 49.7586517800000010 43.6605109300000009  2.2072643799999998
 47.4923512700000003  3.9477173699999999 49.2858763099999990
 47.7231125100000000 32.3519621000000015 39.4269511999999978
 48.7687943999999973  7.1274189300000002 40.5299761300000014
 37.3087975400000005 48.9602048200000013 24.1623728000000000
 46.9995657199999997 21.7010575900000013 29.6749375899999990
 46.6760730100000032 34.7591170000000034 46.4794842700000004
 30.6921977499999983 43.7675168199999973  0.6552661500000000
 13.0582491199999993 19.9930095200000011 22.5110142599999996
 42.6166620799999976  8.2395274900000004 31.7385730899999992
 30.1980027600000014 37.8323938899999987 49.0440651099999982
 33.6022558100000026  3.1133651300000000 26.3277100500000003
 39.8228468800000002  2.5874981899999998 38.0820819400000019
 45.5510883800000030 27.1424096900000009 32.4796641399999970
 35.7151954799999984 15.2904894299999992 37.2558065600000035
  8.3409056100000001 35.6005978700000014 39.2484069799999986
 47.9760318499999983 33.1673356200000029 43.4096987300000023
 36.8066030700000013  8.5778409700000005 17.7731073299999984
 12.6149144799999995 18.8676332400000000  8.3119390800000001
 48.7601241300000012 11.4062930999999992  5.5680914799999996
 32.9135176599999966 27.4913891300000017 47.7771862600000006
 41.1695264199999968 36.2306060200000033 27.7953871399999990
  7.0716996700000001  4.0563707500000001 25.4231812099999992
 37.4065714799999967 42.2469141600000029 43.8863277199999970
 47.5099463499999999 49.6682538000000022 24.3415340700000016
  8.1630501700000000 46.3842094199999977 29.4076556199999999
  4.4680792399999998 45.0077757199999979 45.6865530899999968
  3.8977947999999998 10.2372633799999999  7.6856387599999998
 22.5306091899999998 21.9487152399999985 42.0570342999999980
  2.5754756500000000 36.0193151200000017 26.6292504900000004
  7.8129138800000000 11.6436381400000002 44.6262406199999973
 33.2260335300000023 29.9454577200000003 43.3078559799999994
 25.1354270500000005  1.1224274999999999 14.6389831600000004
 37.3900107500000018 13.9107004599999993 47.1425829699999994
 25.3919344000000002 12.2415414400000007 43.5869314199999991
 15.5563965999999994  6.3576190500000003  2.5034224200000001
 25.0205465499999988 20.3258257200000010 16.1529114800000002
 31.9832072700000012 41.7646578199999965 38.6040511699999982
 18.2880491999999997 17.2429628500000014  2.4766496600000001
 25.0508810299999993 30.1574331200000003  5.9783641300000001
 28.3658938800000016 45.5785206999999986 38.1973446300000035
 32.7711827299999996 35.2680998800000012  0.9546591900000000
 44.9570142899999965 42.5391272600000008  5.1118705400000000
 15.2082422400000006  4.9272492999999997 12.2790129399999994
 23.3705612199999990 39.0224937099999991  1.0517261700000000
 26.3617298200000008 11.5931232299999998 45.6220946700000027
 20.5451522599999983  2.3740066199999998 49.9293067999999991
 11.8593168000000002 19.5375155700000001 17.0242665200000012
 26.8473713600000004 23.7703650599999996  8.5255667800000001
 39.2009383299999996  0.1704283300000000 14.3889293100000000
 34.7349831100000017 40.8610707099999999  2.0154336499999999
 23.3933165099999982 21.4705497600000008  5.5298030200000001
 39.3993056300000006 34.1297736599999979 19.1058201799999985
 11.5197725200000001 12.8167134300000001 10.5026241900000006
 17.6047721999999993 33.4062976199999966  9.6441324799999997
 38.9346672599999977 24.9526995800000009 30.0218680300000003
 27.5360051199999987 47.6380603799999989  2.8808782800000001
 18.9212887599999995 10.1002498599999999  4.8993581700000002
 43.5127563699999982 18.8963851699999985 41.5456305499999985
  7.4125722300000003 33.1014998899999995 36.9086125099999975
 23.0504658599999992  9.1797866399999997 34.6741183600000014
 17.9072589700000009 17.3015035499999996 36.3702263899999991
 24.3948567999999995  4.3582461600000002 49.0431469399999997
 18.1706122199999989 43.4795938399999997 11.5336719999999993
 46.4252268199999989 18.7871307499999993  5.3064395199999996
 35.3290674699999983 25.6369245799999987 29.7914558000000014
  4.9976241600000000 45.0691988000000023 28.0241815699999997
  2.4197085500000002 18.0416653499999988 26.2695079299999996
 11.6198232499999996 44.3692813099999981 14.5110369000000006
 36.9972271099999972 12.3960137400000008 39.8029701500000002
 18.5193176699999995  4.1720802900000002 20.1534595000000003
 19.1937638499999998 39.5890875699999967 23.7947402600000011
 18.1996049000000006 30.7595182099999995 25.2225901099999987
 16.0720084400000012 22.2458561999999986 36.1051298100000011
 18.9167966000000014 34.6004395699999989 29.5878092700000010
 32.3103392200000030 39.8712394499999974 15.9214009599999997
 40.9859430899999992  0.7455711699999999 30.8146913699999985
  2.5178209400000000 17.0165798700000011 47.6578853099999975
 36.0783752199999981 19.2523594799999991 24.4057845399999991
 38.0208275199999974 16.0481708400000009 21.6073613900000012
  4.9229612100000004 40.2091089800000034 44.4946660600000001
 21.8525285199999999 25.4468958900000004 35.9792961200000008
  4.0299023800000002 30.5692219600000001 26.9133986599999986
 33.4912196000000009 36.9277460899999994 44.6285436799999999
 21.9336906099999993 39.5380561899999989 16.1103681700000010
 16.9578940500000002 11.3252206100000006 42.9827246299999999
 10.6528843599999998 43.0273877899999988 11.3065696800000008
 29.5166785500000017 36.8163907799999990 23.0799051099999986
  3.9651991400000002 43.1018657700000034 13.0580256299999995
 16.2367435899999997 40.9495949499999981 39.8422745700000007
 29.1087108299999997 30.1029771199999985 40.7365245900000019
  8.7688417399999992 27.9232041600000009  5.2922745300000003
 47.2579583300000010 14.5056187899999998 45.9350728599999982
 30.7696315600000005 45.1976342800000026 36.6393487599999972
 47.5346184799999989 14.3327762700000001 40.9707234400000004
 44.9489096200000020  6.3239095299999999 35.9474645900000027
 19.0373004500000000  9.9086678399999997 34.9803872299999981
 15.3682360300000003 43.9428962499999969 48.2572839799999969
 10.1718856300000002  8.8817866999999993 26.1891107900000009
 10.3850397300000008 41.3627920400000022 34.4458150099999969
 30.8129391099999985 23.0675847400000009 46.8966865399999975
 42.6107315100000008  8.5644538800000003 42.7763393600000015
 41.9355912600000025 11.4822432200000009 32.0618312000000003
 13.1970185099999995  2.2901806800000002 41.0666185199999987
  6.6573929500000002 40.8033750000000026 32.3235865799999971
 12.5197053199999999 18.6873918299999993 28.9944084999999987
  9.0235954199999995  9.5682114600000006 12.9300756200000002
 15.7809576800000002 30.5557136800000002 49.8798180799999997
 30.1025321099999985 33.2572548099999992  4.6816027299999998
 33.6970484699999986 46.2937018800000004  8.2475253899999998
 16.1592043499999996 37.7475874900000008 23.7029563500000009
 25.5873965199999986 47.3733429099999981  3.7742652900000002
 34.0768095299999985 28.9377111599999992  6.1114840499999996
 15.7123792299999998 27.9577038400000006 35.1284070299999982
  3.1370151599999998 23.8137433200000004 37.5839514099999974
 23.4714056500000012 33.9147166699999971  4.6431395000000002
 37.2456000600000010 36.8001962700000007  0.8987395100000000
  5.1149395799999997 16.7894941099999997 31.0275644700000015
 30.2760037500000010 48.7950291000000007 48.0541060899999977
 45.3610587100000018 33.3138146399999968  5.2825872599999997
 34.4440420299999985  1.0144294700000001 49.5161190399999995
 17.4126950600000008  5.1659395699999999 23.9463689200000012
 16.6223544700000012 21.9115854100000007 18.0160029399999999
 44.9614285899999970 16.7303686099999993 37.3052419099999995
 39.2007883799999988 47.6503374300000004  9.2211472099999998
 29.8212363099999997  5.5185913600000003  0.9649869300000000
 18.5353188600000003 23.1041286899999996 11.0909714200000007
  5.9566262400000003 13.0172807099999996 31.4368684499999986
  9.4479666400000006 41.9752652499999996 28.2830343500000012
  2.9582878600000000 19.9440437000000017 49.5424596100000016
 10.1187072699999998 15.1131565099999996  6.8213870500000002
 47.0522297099999989  6.8246802999999998  2.4018783799999999
 18.3699863999999984 44.3615060999999997 33.8329754199999968
 30.8179324399999999  6.9905249400000002 39.7527245300000018
 24.0411610700000011  9.7940822199999999  9.1398337900000008
 13.1865059999999996 25.6063727800000009 16.3072818700000006
 26.4864450900000001  7.6826437600000004 22.1937500300000004
 10.3567148400000004 15.3062725000000004  2.5219836099999999
 36.9784512700000008 46.8305441099999982 30.9548071699999987
  7.4441561700000003 13.9328212800000006 18.9272108999999986
  9.6336661899999996 13.0276265099999993  5.3188361500000001
 43.6791480300000003 15.4408672899999999 14.6565369899999993
 32.4171308600000003 34.7183287300000032 10.9509741500000004
  3.0224933100000002 49.0450111399999997 49.5023076000000017
 35.2837567799999974 14.1002814799999996 33.4308625600000013
 22.5070247499999994 25.5650260799999991 21.3933897299999991
  8.7011993699999994 41.0577618000000015  7.8025888700000001
 38.1111178299999978 33.5572998199999972 47.5380674900000031
 22.3003454599999991  1.9061634300000001 36.8888115700000014
 40.2560269399999981 33.0448053000000002 34.0426767200000029
  5.2675836699999996 32.2788158099999976 10.0573460600000004
 33.8152611800000003 33.0946281200000030 21.4148813500000017
 19.9108371599999998 41.4401545400000018 34.6773240200000004
 21.7847675900000013 36.5888599199999973 48.9687492099999986
 17.7680310199999987 27.2973152699999986 35.9777481499999965
 28.0130943600000002 16.0769870300000015  5.9210918200000000
 15.7901730699999998 35.4387786899999995 19.5533925300000000
 33.8682396000000026 23.5030066799999986 15.0332658200000004
 14.0985627499999993  4.5441249399999997 23.1078777299999985
 24.1010703299999989 16.6889668799999988 41.4662729200000015
 23.6489841399999996 18.4763720099999986 32.3843926999999994
 34.4881771800000010 42.7937946899999986 35.3074342600000008
 12.0476792199999991 35.3445781300000021 36.3246756099999999
  8.8229377099999997 37.1140862999999968 26.4484237799999988
 18.6584197799999991 42.0611922800000002 22.4586920499999998
 13.2372030800000005 27.6721943800000005 36.5708847499999976
 46.8599388800000014 24.9928014000000012  4.0131359099999999
 48.7753183100000030 16.7748522599999994 34.9418618899999984
 17.8727499499999993 37.3084523400000023 43.1585172899999989
 15.2000222699999998 16.7742225400000002 24.3582627400000007
 39.3218439500000017 32.2312480000000008 10.5851172099999999
  4.0648697900000004 18.2665510699999984  5.9237558899999998
 10.5652229200000001 19.7016351500000013 25.3819364199999988
 44.2054802500000008 11.5066035699999993 41.4862081400000022
  8.7001566300000004 23.5325644400000016 11.8104892800000005
 48.8933925999999985  1.2493902400000001 48.5016922900000012
 17.9423602799999991  7.2493051399999997 39.0715641899999966
 25.7792573099999984 21.9775698000000013 27.0156575500000002
  2.1564305099999999 43.1275337000000007 44.4588474399999996
 19.8489877300000011  1.9367023600000000  0.1565863800000000
 31.7473638499999993 27.9442016399999993  8.1969605800000007
 16.3164629400000010 30.7927066799999984 33.0212320600000027
 37.8472117399999988 48.0877439499999966 10.7125383200000002
 45.6314654999999973 28.0406593199999996 29.3612632600000012
 24.7515629900000000 49.5191047200000014 17.5930268400000003
 36.0021771099999981 38.5906868100000011 43.6732080499999995
 15.6077010200000004 18.6309827599999984 30.9272110100000006
 43.6355132099999992 32.0705445199999986  9.6416921900000006
 47.9205791600000026  1.1739353200000000 30.3309049600000016
 21.5196602800000001 30.9304019100000005 47.2649259200000031
 31.6100167499999998 19.5515014299999983  2.0845714000000002
 35.3915784699999989 26.2592995699999996 40.0478084300000035
 33.5162703800000017  7.9562807299999996 21.2101616799999988
 29.1872929499999998  0.8325298600000000 42.3292788400000006
 28.1894779399999997 30.5557875299999999  1.1210802499999999
 41.9957316200000008 22.2613549400000004 46.5925257900000034
 30.5809020400000016 23.2206535199999990 19.5236570100000009
 34.1032996699999984 24.1575531800000007 15.9962525699999993
 49.0168864099999979 26.8099528900000017 44.8781587200000018
 17.2135391800000015  7.9530292200000003 16.5621469999999995
 10.0046938799999996 48.8900369300000008 44.8506167600000012
  4.3158855999999997 37.0892923299999993  9.7361317900000000
 35.1669627400000024  1.1427805099999999  6.7119741599999996
  8.1497252299999996 22.4318704199999992 12.4461601099999992
 32.6129361400000022 25.6177730299999986  7.9112801299999997
 14.8850978699999992 23.8398242399999987 25.9259801199999984
 37.9479539499999987 41.2620788600000026 41.7594542200000021
  1.1471139299999999 29.5437751700000000 42.2292961200000008
 47.7799512899999996 37.6413331299999996 37.8859319199999973
 48.8577829199999982  2.7575413200000001 45.9970386000000033
 22.2277194599999994 31.2809606699999989 39.1059707100000011
  4.0497246499999999 13.7221085899999995 27.4790769600000004
 40.8464177700000022  5.7434634800000000 30.3907048999999994
 26.5773047600000005 34.7610744300000007 29.3780187700000006
  6.3615469500000001 18.5196297600000008  9.4173129699999993
 26.7790730500000009 25.8806989600000001 26.9075026599999987
 34.3972539000000026 14.6462819799999995 10.0613051599999999
  0.3558352600000000 30.5232001400000001  3.4247157399999999
  9.1974635199999994 31.7693565400000004 47.5754040699999976
 49.8162847700000029 12.2981460600000005 44.9408126699999997
 20.2386095300000015  0.3103418000000000 15.9147070999999993
 28.4822763099999996  1.6179025600000001 42.0884038800000013
 29.8039279599999993 14.6171418099999997 20.3023783299999998
 22.0725227900000007 22.8906132400000004 22.5367035400000013
 24.3763229199999998 42.8593579899999995 37.2297031499999989
 19.6208632600000001 17.8488822499999991 36.1639827699999969
  8.0583452300000005 36.6082547399999996 24.9374201900000010
 23.2210833000000001 26.7470045100000000 36.9048664099999968
 10.0896730800000007 27.1355113099999983 16.5386559800000015
 15.1909744000000000 14.7066938799999996 25.4039727999999982
 14.5707961200000007 41.3704555899999988 13.2471131500000006
 44.2306370399999977 34.3168111700000011 12.6452969199999998
 29.5053566700000012 46.5295704799999967 22.4909968300000003
  6.1837440900000002 30.1868383899999984  0.1928429800000000
 41.1119962499999971 19.3210332300000012 28.6054608500000001
 21.9805820700000005 27.6428750100000009 43.8003710200000000
  2.8357489299999998 10.4322338499999994 34.5543595700000026
  5.1212215099999998 22.3699546500000004 21.8278416300000018
 10.5342775199999998 49.6022226099999983 14.5553293499999992
 31.4203398699999994 31.6521637300000016 27.9157917799999993
 30.7125199699999989 35.3231848100000008 26.7671843600000017
 26.0676219899999992 18.5228665200000009 13.8176230499999999
 32.7906773799999982 12.9147444199999999  8.1094893700000004
 46.1877821499999968 28.0545299099999994 12.4841504299999997
 21.1163152600000004  1.9105298500000001 10.2751108400000000
 43.7878877799999984 43.0299636900000024  4.5996965200000002
  7.0993500999999997 18.7771770499999988 38.0146660600000033
 12.4923920299999995  9.6328768700000005 49.7615393000000026
 42.1910440699999967  4.8777613300000002 30.5347504500000007
 47.5507614899999993 35.6483454299999991 41.7416143700000006
  1.3126465000000000 11.6497799600000000 47.8517466400000018
 44.3058584099999990 48.5622830000000008 36.2903537199999988
 31.9749129900000000  2.3625425299999998  7.2523133199999998
 39.6299095999999977  9.8906621599999998 32.3589497199999983
  6.8678830299999998 28.5101131199999998 19.4712131600000014
  2.6795930200000000 35.9199570700000024  6.7184068799999999
 16.2643641300000006  5.1679483399999997  7.7077606300000001
 44.3328464599999990  2.1504703500000000 42.9550943200000006
 46.2701772099999999 12.8683507299999995 28.3706679599999987
 25.8164149400000014 46.4858354100000000 37.4356567600000005
 31.0831120600000013 13.8644181000000000 19.2750464500000014
  5.7057122299999996 45.9053837700000003 31.7849806400000006
 10.1696586500000006 21.4529583600000002  9.8710949100000001
  3.4921742099999999 42.9718813400000030 28.4096150600000001
 30.4002436500000002 36.8950005800000014 44.2747354899999976
 25.4794584899999990 33.2589064599999986 32.4409518499999976
 35.0778134700000024  2.8109954500000001 44.4004446699999988
 38.2735815799999983 14.0855745900000002 36.2522075099999981
 40.8516567599999973 43.7952047899999997 16.0068778199999997
 27.5954583100000015 46.8677989899999972  7.0976100000000004
 39.5312090799999964  1.0310432599999999 28.7441475199999985
  2.8873987300000001 28.5104156400000015 24.5556139500000015
  6.2036602299999997 14.9175210699999994 18.7766109400000012
 28.5001489499999998  2.0033463800000000 20.2426843699999992
 18.7961599600000007  7.0605221000000000 16.1949422799999994
 38.3948184999999995  1.7144646699999999 15.0077698599999998
 35.5880190999999968 27.8370420799999998  7.1662569500000002
 43.2804778400000032 14.9910901699999997  5.2525593700000002
 29.7653161600000011 15.6686902799999999 43.6775656399999974
 38.8456905899999967 29.5217582900000011 22.1915138100000000
 22.7725330600000007 37.9631619800000024 46.8634725100000011
 34.3824218900000034 15.3646815199999995 34.2022631000000032
 37.4359401600000012 35.8462403899999984 17.7622820300000015
 30.6741343499999992 40.1760008400000004 38.0460728099999983
 40.3457799199999982 41.5230867900000007 28.5196444199999988
 29.6636870700000017  7.5886437899999999 42.3362416599999989
 45.2136556100000035  5.9098876300000001 27.4814675900000012
 31.0258235900000017  1.0171222700000000 44.7740558699999980
 17.5570799599999994 31.8428629000000001 32.9967492399999998
 26.3644996899999988  8.1463241800000006 15.2704172600000003
 49.9028988600000005 18.0212202800000014 32.6492437300000020
 35.8393928699999975  2.6759133899999998 24.0763785000000006
  1.6933889799999999 10.7886450899999993 24.7579958399999995
  7.6360915399999998 39.7904412099999973  7.9453742900000002
 37.9056367000000023 30.0360765900000004 16.3392711000000013
 14.1294469700000001 23.6151525599999985 49.8691227999999995
  0.3468742800000000 29.9160719800000017 49.4216933100000020
 30.3995372900000014 25.0231810500000016 14.6039011300000006
 47.7662208500000034  6.8737917800000004 27.8185213299999994
 45.8880723899999978 40.8326596899999998 24.5114271200000005
 13.5555680200000008 28.4317219500000000  1.9508631400000001
 38.1568668800000026  2.4616869399999999 23.5724187100000009
 31.6412592699999990 44.6445288800000029 40.5969032300000023
 12.1525453900000002 47.8304131599999991 35.7540556200000026
 18.4127436799999984 12.9830360000000002  5.8860644300000002
 27.0848076000000013 14.3613086100000000 20.5138904800000006
 26.9573588000000015 22.3294352499999995 40.8182771099999968
 32.7834469399999975 41.3927523400000013 37.9885433899999967
 23.4487293200000018  2.7936215299999998  2.3970423300000001
 37.0904024199999967 28.3934134699999987  8.1001172300000004
 38.6703612499999991 32.7614664700000020 21.9669920999999988
 49.2361579599999999 12.1067538199999998 28.2114785300000008
  0.3196469300000000 22.3059134700000001 45.4876259400000009
 10.5291970399999997 14.2145773900000005  4.4022403700000003
 38.4538615100000030 44.0503459199999980  4.1638156700000000
 31.2498839299999993 16.7991307200000008 42.9899717899999985
 32.4558431000000027 35.3549281100000030 10.2766893199999991
 20.3173229800000001 23.2473219899999997 17.7406071300000008
 16.3840376100000000 16.5201949500000005  4.9165216999999997
 31.9802050899999983 41.3068812500000035 44.7532239599999997
 17.4350595000000013 31.0449325899999984 22.1819677999999989
 12.3327458799999992 26.4600058900000015 13.3190065499999992
  2.5430043699999998 40.2744557899999975 42.7784558800000028
 27.5080048099999992 27.0369115399999984  9.3722720699999993
 19.7766369799999993 35.9376664700000035  4.3603169499999996
 33.8470110399999982 16.7144848800000005 20.3473951500000005
 28.6703355699999989 12.3299987299999998 30.2887317600000010
 12.7147453400000003 46.7249808799999968  6.7536800000000001
  9.0997046600000004 38.7362215599999971 39.6757849899999968
 30.9183432600000003 44.5952241700000016 11.9327083500000004
  3.0292694000000000 12.9308147400000006 28.2033622900000012
 13.9099439199999999 34.4274721499999998 22.5244276100000000
 18.0548372800000010 47.6501019900000031  5.2641349200000001
 24.3155511199999985 21.4676895499999993  7.4582864300000002
  1.4200832699999999 17.3395212100000009 25.3330133699999998
 21.9557776199999992 10.7544897200000005  0.7086807600000000
 10.7975877600000008 25.0575476899999998 42.2040399400000013
 23.2992051700000005 39.7413651900000033 33.1247093500000034
 26.9901178199999983 22.9102081499999990  1.8683653800000000
  1.6169403200000001 25.9159944399999986 20.1185089200000000
 31.7793579900000012 15.6697717099999991 11.8531342899999999
 15.6279848700000006  9.5417579200000002 18.3253862299999994
 44.7663372100000032 37.8295310299999983  0.9279382200000000
 45.8576410300000035 29.3727761700000016 18.2491512799999995
 13.4855987299999995  2.4579124100000000 10.1338260899999995
 19.2150177999999983 46.8041464900000008 37.2900647299999974
 34.1178917000000013 19.4058342500000016  3.8561750500000000
 10.7339883000000000  6.1414258799999999 18.9447920600000010
  5.1201941700000004  5.1034187900000001 23.1596401800000002
 44.0724508300000011 25.6811730900000015 23.4761506199999985
 13.6634628399999993 41.8198713299999980 16.5774368999999986
 16.9819632399999989 15.8561601599999999 44.4838262399999991
 39.6675656700000019 42.7762734200000025 40.8273773700000007
 35.7314421499999995 38.3482083900000035 18.3383381499999984
 12.4493631100000002 36.4458344600000004 45.1397369800000021
 13.5594664399999996 43.9525201200000026 10.0056401000000008
 14.7932192600000008 29.6361236699999999 44.3305859100000035
 14.1573607799999994 42.7625533200000021 10.2335814200000002
 45.8029283400000011  9.8166505900000001 38.4463852200000034
 18.3964221799999983 38.6676195000000007 36.6809782300000009
 47.2010733500000015  8.4398719300000007 48.9275083400000028
 24.6326812900000007  1.4744250800000001 30.6623349999999988
 41.8644128099999975 15.1860919400000007 32.6472121899999976
  1.6952917000000001 42.7675812000000022 44.7372382200000018
 48.7628465499999990  7.1619870199999998 21.5158022799999991
 16.0889325999999997  6.6901597900000001 41.5156308999999979
  3.2085156499999998 25.5226115799999995  8.5328502400000001
 11.6139625500000001 45.8685544100000016 12.7939140499999997
 27.3134109699999996  6.4981581899999998 14.5447099400000006
  2.9399889099999998 12.3935588200000009 48.5431340499999990
 14.4540057100000006 28.4740003000000002 12.5229722599999995
 23.5948506400000007  8.6546845099999992  9.2825191100000009
 11.2987468100000008 48.0375881800000002 17.7444796599999997
 31.4696896499999994 11.0739511499999992 19.8969600299999989
  8.2073068800000009 40.2066483300000002  3.1385656200000001
 49.8724223999999978  5.8033529000000001 36.9521862300000024
  5.3939689900000003  6.4368270599999997 33.7523980699999981
 26.5543440199999985 48.8600242600000030 40.4278131599999995
 20.2558186900000017 39.5447746999999978 29.0284412100000004
 31.0114448299999985  9.3533183300000005  1.2211029700000000
 23.0775433899999989 14.2718108400000006 16.3248506700000000
 21.7651829700000015  7.4301608400000001 28.7132497800000017
 33.5890150800000029 30.5764250100000012 47.9752002299999987
 19.1902227600000010 30.0738538499999990  1.2616949600000000
  5.3072388799999999 48.7638129400000011 23.4040511400000000
  1.8875357900000000 23.8140839500000006 43.3089405300000010
 43.3634323699999982  9.2079023400000004  7.2146414999999999
  6.4797670600000004  5.4449952699999997 14.0355004099999991
 44.6553287500000025 22.1103635999999995  8.8809451799999994
 12.0456875799999992  1.8711968100000000 49.2047872899999987
 34.8599095499999976 40.4998497099999994 30.9740119299999996
 30.2184945300000010 32.2376429299999998 18.0646462499999991
 12.5094398899999995 46.1562554599999970 48.1854606200000006
  3.0366042400000000 36.2074788099999978 39.0964099600000026
 43.3622328800000005 39.0479577699999965 29.0261635200000008
 42.7303248699999969 18.5701736599999983  8.9086504000000009
 27.6872662299999988 39.8834567000000035 21.2567640800000000
 12.4338930500000000 26.4405428299999983 36.2033811599999993
 20.2270997100000010  6.8647988599999996 26.6745042400000010
 18.3927833400000011 27.5096308799999996  4.3662016799999996
 32.7515786000000020  5.7814759200000001 19.2658365600000003
  0.9149983800000000 28.3777094100000014 44.1620750599999994
 31.9954634800000015 47.7546967299999991 13.1879793099999993
  0.3682224800000000 38.7151880400000010 36.1653379600000022
 30.8350363700000010 44.4561983899999973 25.3263382800000016
  9.7675135199999996 12.5996832800000007 12.8768777300000004
 21.6840112900000008 43.1777773399999987 38.9037419799999995
  5.1913861900000002  1.6277087400000001  6.9007835599999998
 31.4693196399999984  4.8551181400000001 49.9705014800000029
  4.2182906999999998 46.8118219600000032 16.2917179099999991
 14.9029661000000004 24.1513088700000011 11.0481626599999991
 36.4698912200000009 49.4617124800000028  3.0016246299999998
 48.3050988299999986 13.7960033800000001 19.4287880400000006
 39.6406123100000016 39.7711505799999969 33.7278534300000032
 14.0326814599999992 47.2772284899999988 38.3791707199999976
 38.7222392199999987  4.6745691899999997 15.4844366299999994
 46.9264722400000025 43.2189627300000012 31.1065798099999995
  8.2868191200000005 26.5689823400000016 44.8862464400000007
  3.1438770699999998 39.1419467699999970  8.6993608899999995
 10.1584733299999996 33.4612208300000020 32.7385596199999966
 36.9714528499999986 29.2080405100000000 49.5368035300000003
 15.0568870199999996 11.1001437599999999 10.1161434099999994
 22.0223413199999989 29.4905389999999983 47.4890221799999992
 47.9958295799999988 15.9077725900000004 11.9339418899999998
 23.7613215699999998  6.5316059900000001 26.7018569300000017
 28.1094091400000003 34.8393769899999981 45.4090107199999977
 39.2431894500000027 10.2850861699999996 11.4431960999999998
 25.7968983700000010 18.4709601899999996 41.4278944400000029
 28.6219349299999983 48.8603084599999988 45.2042463200000029
 47.7679224700000020 35.4729103299999977 43.2039540900000034
 28.8564374800000003 40.1447343600000011 12.5503786700000006
 34.2142481300000014 38.8682929300000026  9.3992433599999998
 23.0830750299999998  7.2420339100000000 16.8639821499999982
 32.9480699900000005  8.2122926900000000 24.0031926800000015
 21.6593251000000002 28.2768985199999996 49.8333506800000023
 49.1247964599999989 40.4540245399999989 10.7904047500000004
  4.3326713200000002 19.2068163399999996  8.9622179099999997
 27.9963932100000008 35.3807316799999967 43.9573324999999997
 40.8872532199999981 42.0647848099999990 32.8383482400000020
 14.1189487899999992 47.1723968399999976 26.4736609700000010
 42.8198500299999978 23.2194039799999992 48.5227690500000008
 22.1794857000000007 20.6162411299999988 47.1647557800000001
 48.0503764700000033 32.6773194000000018  7.7072395699999996
 35.5755305799999988 17.9424275500000014  8.3798241800000000
 39.7050614699999969 22.9680483799999990 23.9891261399999998
 35.2431017400000002 30.8108955999999985 38.7223458799999989
  6.4671990700000004 44.2148108199999967 18.3255210099999992
 47.0316797899999983 11.4423090599999995 10.8884475700000003
  2.1383262699999999 38.8496451299999990 45.9856339500000004
 30.5497620199999993 49.8502099399999992 32.4784954900000002
 16.0737478699999983  1.4804759300000001 32.3589598000000009
  7.0373239300000003 26.3032264200000014 28.3264386799999990
 32.4549491699999990 20.3306470399999988 47.1847908800000013
 34.7803051699999983  2.5890685400000000 14.4749469899999994
 30.4340435800000009  4.9704480000000002 38.3195495900000012
 36.6699205399999997 11.3545436500000001 35.8150666700000002
 43.8256006399999976 26.8700006800000004  4.1013882300000004
 32.0319509099999991 10.9988603800000000  7.8463934599999998
 24.3349348300000017 47.2497016200000033 25.7350914999999993
 29.6828381599999993 29.4609930999999996  0.9109798099999999
 10.8377079799999994 49.3579571599999980  9.1859847800000001
 38.8462237500000001 38.4825597700000017 26.3820483199999991
  3.0861802599999999 19.4317077400000002 38.7119475699999995
 31.7028082399999995 29.0980162900000003  0.3598414800000000
 47.8558027899999985 12.4774478400000000  8.4659040500000007
 36.4493335499999986  3.9490321900000001 21.3840212299999983
  1.2448241499999999 21.7594458800000012 11.0069436500000002
 43.7019895299999988 49.3379756100000009 23.3560885399999982
 45.7801110799999975 26.3269047799999996 26.2887065200000016