Na Cl 
 1.0000000000000000
    50.0000000000000000    0.0000000000000000    0.0000000000000000
     0.0000000000000000   50.0000000000000000    0.0000000000000000
     0.0000000000000000    0.0000000000000000   50.0000000000000000
 600 600
Cartesian
 26.3983922200000016 27.7780451200000016 15.6044036199999994
 13.2116793900000005 48.6955904399999966 26.7885179600000001
 34.6213813800000025 31.5568528800000010 26.0262713199999993
 23.5420589199999988 21.3842887099999999  5.7402906500000004
 27.0649553199999993 30.7040124799999994 42.3377663600000034
 20.8391451600000011 43.5127153999999976 18.2076646800000006
 16.2202739499999993 14.1442190700000001 21.8898906199999992
  3.3917202400000002  4.6420689900000003 19.2535597699999990
 44.5790339500000030 39.8235453500000034 14.3266607599999993
 38.1874072800000022 15.7541148199999999 29.4077882700000011
  6.6974205199999997 13.5467282999999998 29.8625803500000018
  0.3878732000000000 18.9848402400000005 28.2098643100000004
 23.1895378900000004 46.5633151799999965 39.6382368599999992
 49.8468844000000004 26.5860881099999986 32.3828340399999988
  8.2917539900000001  9.5093218900000007 23.1729830499999991
 18.3261050499999989  6.8475121200000002 36.1361982199999971
 41.0835445800000016 41.1337846600000034 35.5188074699999987
 14.5971266400000008 33.9074182199999967 31.9781061899999983
  6.0306957700000003  7.9038368600000002 39.7860637100000005
 34.3728074300000017  3.7744180500000000 36.6442499600000033
 29.9091115300000006 32.4374301300000027 25.8881567200000013
  2.2499368999999998 14.6894819600000002 36.1233643200000003
 25.3841119699999993 30.7698861100000016 49.4759190400000008
 41.7712372200000033 49.1839963899999972 35.4273922200000015
 28.1810548099999991 38.9881158700000015 23.2633631799999989
 37.3449406499999981  6.4175510300000003  9.7802338899999999
 26.3910470699999991  4.3280269699999998 41.1493485800000016
 47.1015038199999978 34.9746827199999970 19.4924733699999990
  9.9999166099999997 18.5985320600000001 35.5282771999999980
 23.7549545400000000 49.5208764699999975 47.3707965999999985
 10.9785042300000004 15.7205744700000007 15.6951503900000002
 38.3926068399999991 14.5431238799999996 26.2829838900000006
 38.1102537900000016 19.0354716599999989 29.1721678500000010
 46.6250125800000035 26.5863794700000007 37.2797932900000006
 11.4857951699999994 41.7594193199999992  0.5605275500000000
 20.7865538399999998  9.6103976099999997 21.9525636300000002
  6.7368890900000000 26.8949166300000009 22.8637976400000014
 21.8470120399999992 32.7314211400000019 16.9951686899999999
 37.8002528000000027  8.8488842200000004 23.1970335200000015
 22.5424245600000006 20.5295303699999998 39.8169273000000032
  3.0971268900000002  3.4116483799999999 39.5742806800000011
 24.9353724200000002 38.8042331600000026 32.7467555300000015
 24.7202476400000002 23.2020331199999994  6.5706294300000003
 32.5688188800000020 34.1389403800000011 23.1710296000000007
 35.4944860000000020  5.8262515400000003 21.8095900600000014
  3.7801257100000001 32.5728406100000001  1.7321611299999999
 12.4321068700000001 46.4201556299999964 33.5556216000000020
 19.3322240000000001 16.6887669000000010 38.1052386400000032
 34.7458660499999965 23.7707553500000017 15.0852381799999993
 37.5980705200000003 10.7712260999999998 31.9970009500000003
 23.5950201200000009 11.5030915999999994 32.4605138200000027
 13.8557596899999993 23.7531017200000001 18.3805358199999986
 21.6655537600000017 32.9620224100000030 42.7106642600000015
 38.1342111100000025 21.6861260000000016 28.7196680600000001
 41.4610365400000020 35.6410704999999979 19.4718127000000010
 12.7560434500000000 40.8221913900000004 48.5707329800000025
 28.3092155699999992 42.9861165100000022 17.6601580399999989
 14.2762226099999996 40.4734383099999988 37.0776089499999983
 13.3737010200000004 21.7931189200000013 26.9497054499999997
 43.6995346100000006  8.0781395099999997 19.2907765799999993
 20.0820310800000001 18.6964175499999996 30.6897933000000016
  3.3560591500000001  5.2861889199999998 44.9770950699999972
 30.0368227899999987 28.8806365199999995 46.8580569800000006
 43.3637039899999976 13.7730235299999997 33.2064654099999998
  1.0642034199999999 36.0669462199999984 27.1650829199999997
 13.5487139299999999 13.2350014999999992 40.6702944700000018
 45.6392120800000001  8.2373990900000003 45.9665871199999998
 10.4297367899999998 42.5862370500000011 46.8860826000000017
 14.3902160099999996  6.3604153300000004 49.5003784999999965
  2.8614568500000002 42.5053407899999982 37.2626051900000022
 22.6055054800000015 30.7305986900000008 39.1721883499999990
 16.9696076200000014  8.1951914200000004 36.5821295399999968
 35.8511037600000009 49.5008825800000025 11.3335015800000001
 32.1610057600000019 30.0238813200000010 11.3733126099999993
  1.2650973599999999 12.4913885100000002 42.7666597999999993
 29.2512013700000004 24.9414476699999987 40.9109597100000002
 40.4997653499999970 29.5562651400000007  2.1481724000000000
  4.3335273000000001 33.5932483099999999  1.7243826799999999
 31.6996521199999997 26.0532333600000001 26.6931435499999985
 31.6635615100000010 19.4783102799999988 21.9608955899999998
 46.7721576599999977 49.6537152699999993 29.9925028299999994
 33.9949853399999995  3.7186277300000001 48.9763406300000028
 45.3570245499999984 15.5116298300000004  3.9625665699999999
 48.8562697999999997 27.3265370499999989 27.1082461899999991
  8.2937789199999994 43.5422886099999999 15.2447236099999994
 18.0696701500000003 46.9461812400000014 24.4680850399999983
 35.1052922800000005 14.6473933499999998 28.7401093500000009
 35.0179071499999992 45.9654169100000018 40.7620708399999998
 38.1246332699999968 10.7114064800000008 26.6086923800000008
 12.2927985399999997  5.0651360099999998 29.7409098500000013
  5.4718507000000001 15.3947377900000006 39.3580061799999967
 40.0098666700000010 45.8291815799999966  1.0548272400000001
 28.4814359099999983 37.4932626399999975 49.2652525000000026
  1.0986964699999999 15.7915529600000006  8.6306587100000005
  5.4809971700000002 19.1195001399999995 41.4389354400000016
 14.1878893000000001  5.8554087800000003 11.8553533299999998
  2.9233736200000000 33.1404859599999995 42.1475083300000009
 23.1724986199999989 10.1843331100000007 18.0865067800000006
 29.9195187300000001  7.3513046199999996  3.3767047799999999
  2.2772703600000002 24.0828787099999992 10.9424601100000007
  9.9271143599999991 45.0110485299999965  0.6926241600000000
 40.9342014200000008 31.1232467300000017 38.4078363400000029
 20.5053131399999984 32.7979849600000009 35.7331745700000027
 17.4650412599999996 34.9484565799999984 28.7097914000000003
 25.4641358599999990 25.7314433499999993 18.3683221500000009
 16.3904536800000002 24.3550411500000017 35.1766734999999997
 14.3515371300000005  6.2845753100000001 24.8571837900000006
 24.6879624600000014 30.5849822600000003 41.7968662399999999
 29.9309250599999999 49.0574369899999994  8.3434928199999998
 29.0839054799999985 13.1993304100000000 41.1461474600000017
 43.3003022999999985 48.1807607499999975 24.0458419399999990
 38.4655286500000031 40.1400277099999983 33.4457426999999967
 22.5974804800000015 45.8544727399999985 26.1233336899999991
  4.8692934000000001 38.2141820599999988 15.7578250499999992
 41.7655592999999996  3.7551194200000002 12.2921155599999992
 43.5862002200000020  3.2670402699999999  9.1457872499999997
 13.2462456700000004 29.6508937500000016 42.5712792599999972
 45.4905797899999982 10.1745964799999999  4.4429953500000003
 23.4227862299999998 16.7681981200000010 23.1057844000000010
 38.9184099599999982  1.7161480899999999 43.3008773700000020
  7.8459354599999998 16.6373093499999989 23.2581734100000013
  0.1204465700000000 24.3455848500000016 26.2446363600000012
 43.6032668200000018 40.1054302200000024  1.9656813200000001
 37.2060241800000000 21.6484211500000008 45.0142446199999995
  4.4093008899999999  7.1200114499999998 16.0323984499999987
  6.5207995299999997 45.0776534399999989 20.1213071200000009
 28.8087935100000010 39.3925028100000034 19.7947364599999993
 40.1357260699999969 11.1480913899999994 15.9719503599999992
 40.5696316800000005  3.7996644399999999 10.9602509999999995
  8.9386390599999999 31.7066204899999988 43.1705448299999972
 17.3469225499999986 49.7272829799999982 16.4449721400000008
 40.6467881199999965  0.5680050500000000 46.4608261300000009
 17.1048429400000011 31.0953070300000007 18.8252894499999996
 46.6398337600000019 25.6860168500000015  4.8852610199999997
  6.5819492400000001 22.8208118499999983 49.3846914299999966
  8.5088008800000008  7.4164263200000002 47.8772276999999988
 22.5659582400000005 16.0601452800000004 22.8616642600000013
 35.9912839200000008  5.5088220400000001 36.7720643700000025
 28.0858587100000001 39.0274040999999983 33.5807900100000012
 42.3376995100000002 19.7156698500000012 11.2632274399999996
  1.0636635800000001 26.9938363400000014 35.4072885499999970
 40.2986932299999978  0.1370626500000000  3.6119625499999999
  6.2545019200000000 19.4138216399999983 38.1003216800000004
  2.1064504099999999  3.1119728499999999  2.9276485999999999
  4.9900776300000000 18.2346672599999984 20.0526440100000016
 24.7879497399999984 11.0712073300000000 23.7816444500000017
 48.0982308999999972 36.9666785399999966 48.9662330800000021
 25.4794186799999984 32.5897518900000023 35.9600656100000009
 30.8227657899999983 38.2247159900000000 42.8016459299999994
 17.2631505300000008 41.7708882599999995 43.3189152699999980
 11.0089577300000006 27.5526018499999985 26.5792524300000004
 17.4956464999999994 49.3307063800000023  1.1821599000000000
 18.5614127800000013 11.6645131099999997 45.4718089200000009
 44.6924776700000024 46.4722760900000011  9.5443061100000008
 11.1528440900000003 45.8506142499999996 11.2736466899999996
 26.1798497200000000  4.7342079000000004 17.8322007499999984
  5.7980001899999998 46.9892455499999997 48.2499315199999970
 36.5989934799999972 19.2834578100000016 47.0753767499999967
 45.8570608200000009 19.6211200800000007 22.1651248999999986
 29.2541437199999983 24.3935357900000014 32.1560105200000024
 46.0688529999999972 29.2123432399999992 21.8528467999999982
 30.7962192799999990 42.0574919700000009 10.2676226800000006
 17.9343916300000004 23.3201698700000009 42.0950748500000032
 41.9229286899999991 48.6625231800000009 21.0270799299999993
  2.1324317399999999 39.7803324899999993 38.0482024900000013
 26.1392884099999989 23.0202701500000018  1.6804372900000000
 43.1095323699999966 41.9105864799999992 41.2269538700000027
  1.4136817500000001  9.7492490499999995  5.6287410500000004
  2.2507641700000001 28.5934182700000008 19.5808900600000015
 46.0192575599999998 45.6617547199999976 37.1115436299999999
 33.7137083900000007 26.2969322400000003 22.5401446300000003
 32.2108438400000026 17.6523995400000011 33.8791277899999983
  6.5007379800000002  7.9031869600000002 28.8631914599999995
  3.6587854200000001 43.2064965599999979 21.5876309999999982
 23.3142172300000006 42.0490313299999983 18.0695369700000015
 44.7078396300000023  4.6606760999999999 31.9831445000000016
 40.7096632499999984  7.3102094700000002 12.6906173100000004
 41.2051795699999985 35.4530464999999992  9.3525639999999992
 38.5431674000000015 45.0145302800000024  9.2103871099999992
 48.9761478699999984 42.1172990000000027 15.4442279700000000
 21.1394439299999988 40.6341600900000017 38.3286102900000003
 38.9530656800000017 34.1748969300000027 27.4927409699999998
 20.4975275400000001  1.9453954400000000 46.2612043099999966
 12.0608675099999996  7.0002690699999999  3.5222405100000000
 48.2962826699999965 15.6228760599999994 23.6778781400000007
  4.0978887400000001 23.2160032799999989 41.3671856699999978
  8.2895655700000006 22.7285169200000006 48.1838254199999980
 25.5539172699999995 34.6875246800000028 43.2272559900000033
 20.4914770900000001  0.2554230600000000 42.8954131200000006
 43.2082569000000021  1.1736547100000001 25.6147348400000006
  6.8485252100000000  3.1632471799999999 14.6954288500000008
 36.0727521800000019 24.7458201200000012  2.9988405500000002
  1.5131936200000000 32.2451424200000005 44.1087144899999970
 35.1643749899999989  7.6504725799999997 31.4925943599999982
 46.0334890999999971 34.8512520199999969 44.9927750700000004
 43.5706330000000008 41.6287767000000031  4.8499353500000000
 12.8634029400000003 45.2131466700000004 47.3560573500000004
 13.2559165199999995 42.1889305300000004 19.3554365399999995
  6.8219262399999998  6.1143826700000004 14.4295712799999993
 17.8044480100000015 39.3577405699999971 35.5457056500000022
 16.6748247200000002  3.7790471900000000 14.4461867700000006
 47.0610427399999978  4.9453709500000000 16.8496077299999989
 41.3570512699999995 37.9607695099999987  6.6531525299999998
 19.5344999299999991 16.3403078800000010 31.5544668000000001
 35.9235639199999994 17.3387239300000005 11.9330952499999992
  9.5318082999999998  1.1020934899999999 22.8853080300000009
 33.3720525199999969 34.0866760500000012 44.7643883000000002
  5.0742190799999998 32.4001120300000025 48.6829242700000009
 13.9081435599999992  4.1687719999999997 14.5510190900000005
  8.9779007300000000 41.5775529499999976 43.9324901199999971
 23.3614101400000003 35.2202502900000027 46.7466943000000015
 21.6910174699999985 10.9305899899999996 10.4259181999999999
 28.4072698899999985 40.9850827799999990 36.2863539700000004
 14.7510968699999996 21.6850656199999996 10.8978512999999992
 10.1867663299999993  8.9816340799999992  4.3239032200000000
 21.8413703199999993 37.9110443799999999 20.9229201600000003
  1.5191988800000000 33.1755656699999975 31.7321663899999997
 22.5204665800000008  1.4817837599999999  4.3397091799999998
 37.4922134199999988 31.6308772800000000 20.1544522899999983
 35.8795831099999987 28.1534088000000011 24.3416600699999996
 10.2808656900000006 40.5096809599999972 46.2078416000000018
 15.1937777199999999 11.8222194500000004 46.0423734700000011
 34.1709424399999975 11.0296479499999993 25.2930581500000002
  0.4282507800000000 47.6108839999999987 46.1273158899999984
 11.7981336599999995 41.2324238500000035 43.3476935300000008
 44.6852303800000001 24.6669694399999990 27.7554293500000000
 35.5011277999999990 17.4549302399999995 15.0125442600000003
 15.8313918000000005 28.2019845599999996 40.7544565099999971
 10.1505823700000004  0.8379152700000000 32.8420219599999967
 25.8631324700000000 31.6675053099999992 35.7617881299999993
 48.3731270999999978  7.1471579399999996 22.2835079399999998
 18.9179558400000012  4.0837945199999997 36.3345022700000015
 23.9796776399999985 26.4421562799999990 13.3205766899999993
 28.9323475600000002 15.9654063199999996 30.5840992000000007
 26.9553308999999999 38.2463797600000035  6.9046924399999998
 47.1658197900000005 15.9332389100000000 39.9463371300000034
 28.0881891199999991 28.1944690599999994 14.4415524899999994
 19.1726245499999983 34.3008807599999983 44.9028566499999968
 32.3116425099999987 11.7756817300000005 13.8828560499999991
 29.1617025500000011 20.7347985199999982 39.7587605499999981
 25.4885160000000006 35.4884409699999992  4.2274563599999997
  0.8590307300000000 37.7295186699999974 20.0202631599999989
 30.5629713099999982 21.8588701299999997 32.0303056500000025
 33.3471238300000010 15.1102154399999993  7.3908214499999998
 17.5360962799999989 29.1702286899999983 14.0336630699999994
 13.7752148900000009 20.0365765099999997  4.7414263500000002
 39.1526638200000008 38.8209014800000034 12.8912518600000006
 13.2699428699999995 27.9297382200000008 15.1103226999999993
  9.1936256099999998 17.2655950599999990 32.8561963200000022
 14.0915516400000005 36.7083527799999985  7.2851471900000000
 41.4687713599999981 15.6401944400000001 14.7479859500000003
 19.3998318300000001  2.9734926499999998 25.4910440800000018
 27.9777996800000004 22.8792856100000002 32.1532275699999985
 49.2957310700000022 13.3521738299999999  9.9855465199999998
 27.0802985800000009 38.5781837600000017 33.5344108000000034
 12.8422781900000000 40.1695138999999983 29.0200532100000004
 40.0342727299999979  6.0217166600000001  6.9918716099999996
 12.3861931100000007 24.7475817000000013 32.6056041399999970
  2.3888498100000000 49.3987401199999994 44.6252743000000009
 16.9851433599999986 19.3043924300000000 48.9235029600000004
  7.3141660999999996 29.1897116399999987 41.4834744300000011
 12.7546732600000006 17.7934911699999994  5.2060111200000003
 47.4289228000000023 37.9054383599999980 26.7024346100000010
 37.8184115199999979 14.0424579900000008 11.5914597700000002
 17.6643470899999997 34.6814578299999994 41.2617954199999986
 36.9955432499999972 34.0954711799999970 42.5841550499999997
 11.8939943199999991  2.3625384999999999  7.1846152200000004
  1.8280421600000001 23.9046251699999992 15.0353085800000006
 48.4312794200000027 34.5131513799999965 12.5352829099999994
 30.4997921100000013 10.0060465799999996 21.6248569900000014
 48.9713938399999975 12.2163299500000004 19.8575167499999985
 45.2840903999999966 39.7073272100000025 11.0484219699999997
 40.8280049399999996 46.2790400000000020 11.8252889299999993
 47.6310604000000026 35.2321563499999968 46.8516948400000004
 36.4351513499999982 15.5887387099999994 49.9314435499999973
 47.7717861100000007  0.4090787100000000 25.3859567599999991
 11.7752218899999992  6.1543164099999998 35.5959111800000017
 10.4791309300000002 22.7534861399999997 17.8415714799999989
 13.2919419899999998 47.6689445499999991 21.9511232700000001
 32.5287550099999976 10.7855215999999992 22.2614500799999995
 48.1914530299999981  3.7510196900000001 43.3879779600000006
 21.7456089699999993 28.4499029800000010  7.5193200100000004
 27.2113451899999994 41.0785426099999995  7.0656653100000000
  2.6367994299999999 16.6879703600000013 24.7178427099999993
 32.7823577599999965 23.0868746400000013 21.1020765200000007
 12.6001151300000007 20.1350525800000000  9.8287352600000002
 41.5535810100000020 41.0360877800000026 43.5273622400000022
 14.3771094099999992 36.0778608800000029 10.6077433100000000
 34.3418910099999977 34.1621969999999990 14.0449547999999993
  3.5552777799999999  3.5537025199999999 27.0782692699999998
  4.4716491600000001  5.0074616900000004 10.4086844500000009
 38.7596046999999970 32.6761347200000003 37.7961735399999981
 40.2887155499999992 32.4422311699999995  6.5791977399999997
 26.5763611699999984 18.9021110899999982 37.7810148699999999
 35.5169170500000035 32.8248066700000010 36.5257828200000034
 38.8318571200000022 47.0226327399999988  9.3884765399999992
 42.1252868799999973 49.6965922899999981  0.6265835800000000
 30.9902953600000011  3.8941053499999998 48.2285484200000027
 27.2132910400000014 23.7825918399999985 14.0209791500000005
  0.5966558100000000 27.9942388800000010 49.1728169399999970
 47.5342669500000028  8.4246501100000000 43.0944541699999988
 38.4911845900000031 21.3393205200000011 49.9599421400000026
 26.7475413700000004 45.9278875199999987 10.0056233399999996
 14.5114699700000003 44.2757505200000026 42.5389868899999968
  2.7526115299999998 13.1420064799999992 27.7028736100000010
  2.1967446200000000 20.6868433299999985 33.7757750999999971
 19.4521683100000011 32.5928298700000028 37.6915837800000020
 32.4486133099999989 13.8438929399999999 24.3086467400000004
  5.4257212199999998 40.0965982999999966  3.5276314000000002
 38.9009856300000010  8.8655412699999996  3.1521317099999999
 27.8776467200000013 39.6084383500000001 49.0234280199999972
 36.7547882400000034 37.7259939200000005 10.7797350099999996
 25.0062898400000009 30.7133131599999984 48.6542308900000009
 31.6586180299999995 36.3931828999999993 10.2250783300000005
  2.8914690699999999 46.9207093300000011 46.3617733700000016
  2.3249670199999999 25.7206639400000014 37.1988307199999966
  0.7478427800000000 18.9936772100000013 26.7328303399999996
 48.6795777900000033  7.6639408700000002  7.8542811400000003
  6.9030644900000002 19.8048328600000012  9.8258904000000005
 43.7399433000000002 37.2269847399999989 23.9324761200000005
 33.1261494800000023  1.1943387100000000 23.2507091099999990
 24.6680518500000012 45.9474333799999997 38.5127771800000005
 34.2461064900000025 24.3116937200000010  6.6363945199999996
 37.8826448900000017 43.6126162699999966 47.2417069400000003
 41.3684621900000025 29.7439916199999992  7.2671537800000001
 39.0535586700000010 23.1605590200000009  9.5154426599999997
 26.0447371899999993 33.8979058600000016 22.1037741899999993
 48.1327330200000034 16.8438994899999983 45.4186776600000002
  1.7154847300000000 32.1518230399999965 25.6898361100000017
 19.0755764100000000  3.2127418599999999 46.5523910699999988
  6.0367011699999997  8.8366080100000008 16.8708520600000007
 48.4104956700000031 35.2007688200000004 19.3215359999999983
 37.0555917399999970 43.3304402500000023  4.7092489899999999
 48.3478087700000003 31.6219828499999984 20.6657122899999983
 28.6264863500000004 25.3560242400000000  8.6993364399999997
  9.7475889400000000 27.7273433199999992 13.4591443799999997
  7.8395268700000003  8.9280763699999994  4.1795213000000002
 45.2145357599999969 20.7025081700000015 47.0548369899999983
  0.6453044200000000 45.6314707900000016 28.1294886200000001
 22.3151586799999997  0.8719699000000000  5.1981020500000001
 14.5011714699999992 21.1889419299999986 22.5470808399999996
 48.7877445100000031 25.6219072600000004 27.3953516899999983
 33.6757905199999996 39.0113361800000007 13.5272228900000009
  2.0351466700000000  4.7101369100000001 13.2711296700000005
 47.8764142400000026  8.8940737799999994 32.6980379800000023
  5.9243217599999998 20.0758268499999986 14.4217867200000001
 36.9694678299999993 45.8457936300000028 30.2535068400000000
 20.6894340300000010 27.3177804799999997 29.9365028200000012
 42.8028619299999988 37.7005398900000017 32.9739559100000008
 43.2770292699999999  7.0309560299999996 19.2780181199999987
  5.6504702900000003 17.4541982000000004  2.7091004700000001
 31.8515413400000007 28.8552278599999994 19.8145662499999986
 23.4150085700000012 36.0490482000000014 26.3531019800000017
 16.5849796299999994 43.7527098699999968  1.7947243500000001
 13.9322091700000001  8.6394485099999994  3.2111519999999998
 19.8316011400000001  9.7204227700000008 21.1455697299999983
 43.5904390099999972 24.5085230400000000 14.7468074500000004
 49.5928565000000035  7.1392599299999997 39.5416328900000025
 26.2239278200000001 45.5548428900000033 40.2444684399999986
 38.7810154499999982 42.5267234900000020 46.6416552199999970
  6.2992515300000003 21.5204724200000008 44.5799812200000005
  5.7443370099999997 45.0721909999999966 28.3140825199999995
 24.7849800999999985 11.1604939699999992 24.4222084399999986
 14.0572626199999995 10.4128697199999998  9.1014463299999999
 18.0084078699999992 17.3109980599999993 45.9444171299999979
 37.8186442599999992 17.9540773499999986  4.1779737199999998
 19.2043801599999995 18.0173931699999983 18.3270540199999985
 22.7968700300000009 46.9946551800000023 39.1696458400000012
 24.2376314599999994 11.8719297299999997 31.5229446499999995
  6.1308017299999999 40.3846121300000007 44.1761502000000021
 18.5564746700000001 28.6697802999999993  2.9974447099999999
 28.0532604399999990 41.1482938799999971 29.3751687600000011
  8.4614278600000006 11.2179677299999998 40.3836166000000034
 27.4441553599999999  3.9192033899999998 20.0514595399999997
  4.8804055699999997 24.9763969699999997 28.3038430500000011
  2.6901638100000000 13.5832350799999997 43.4319296399999999
 10.4413847000000004 38.3526897899999994 43.6573593099999968
 49.2380059099999983 43.1653089100000003 29.3468352800000005
 32.2605118099999970  2.4219450800000000  5.6309342600000001
 39.1121807500000003  8.4217937700000007 45.0878964500000023
 42.2756038099999998 26.0732422899999996 12.9832303000000007
  9.1516169999999999 11.2269103300000008 40.6819944900000010
 42.2814355399999968 24.0871690299999983 33.0499306500000003
 20.1843926099999997 39.0865602499999980 27.8180876599999998
 38.5993746999999985 39.6905619599999966 29.2748668800000011
 22.6877077100000015 12.3035200000000007 35.2606357900000020
 25.5057863299999994 25.7508674800000001 44.8296630700000023
  2.1472695800000001 39.1597625699999980  8.1295963400000009
 34.1257109499999984  0.8238789399999999 46.9333386500000032
  8.6226906400000001 21.5616448600000012 36.5652459800000003
  2.0892595599999999 14.1855075799999995 15.8258779300000008
 35.5303374800000000  8.3819426900000007 25.3107370899999999
 47.5583163100000021 12.6221863400000007 41.0857808700000007
 28.7191403899999997 32.5925862100000003 33.5964360700000029
  5.3009674000000002 43.3590543899999972 35.6271177899999998
 34.9687453100000027 19.7023521300000013 37.4321971700000020
 22.9378842899999995 17.0211872600000014 25.0943306700000015
 10.4156001499999995  4.9917537999999997 46.4060747300000003
 46.8979547499999967 13.9254568699999997 45.1535723800000000
 46.0910714199999987  2.6373781699999999 26.4149733900000001
  6.4578364400000003 36.8570478600000015  6.4033357000000004
 20.8630942399999988 46.0248429999999971 39.5363147600000033
 36.8420950499999975  5.0915750500000003 24.1018078399999993
 29.0843705099999994 21.0151340699999984  1.3582766300000000
 28.5553123699999993 29.1350060999999982 22.0474836100000005
  2.0569552000000000 21.2460103099999991 31.6952432399999999
  1.9531692199999999 26.9150040500000003 10.4730189399999993
 20.0292590600000011 31.7570771699999987 41.1960033000000010
 31.2273965099999984 38.8531935800000028  5.6245243000000000
 31.3798599799999991  1.3066666400000000 11.1462851599999997
 35.6146379500000023 25.2200925600000012 24.0956682399999984
 25.8960397299999983 34.7398028599999975 21.8667317700000012
 14.1609412700000004  2.9398978699999998 10.8635036300000003
 32.9055520599999980 43.6135165800000024 12.3732092599999994
  6.5280581900000003 17.0739234999999994 11.4322145800000001
 41.2303713599999995  8.8514057499999996 15.5764317400000003
 43.0883303999999967 35.5689503700000031  7.3487861800000003
 11.0493519199999994  6.4576556700000003 33.8188513099999994
 43.4339785199999966 44.8770181300000033 48.0436303199999983
 19.2947513499999985 36.8859624899999972 42.3715605800000006
 38.8187195599999981 26.2196247400000004 23.2329298400000006
 25.8517950700000014 41.1196755899999999 48.3876452800000010
  1.1541768400000001 48.2502309099999991 41.6309576000000021
 41.5043444599999987 13.5172820500000004 34.9593810000000005
 12.3164142299999995  1.9739745399999999 26.5901388300000008
  0.4632462700000000 35.7801431700000023  6.8662981500000004
  1.8730653500000001 30.6092678900000017 49.9655022299999985
 20.1959556099999986 33.4258745599999969 38.6736964799999967
 38.8166623400000006 41.6438993000000011  9.0155815500000003
 24.8791357399999988 43.6343575799999996 12.6478439300000005
 22.3128572900000002 12.1924877499999997 19.1415408900000017
 11.8778191799999995 30.5069498599999989 30.3063424200000000
  8.6970738200000000 21.7196520299999989 42.1916450800000007
 14.9788648200000001 49.7810174199999977 19.5598525099999989
 42.4411124299999969  7.7765803800000004  0.9864808500000000
 29.7836971800000008 24.5985727400000016 28.2120514299999989
  9.9484290299999998  3.2466659999999998 16.7155224900000015
 37.7865024600000012 27.7467655800000017 39.8891798200000025
 17.4451901900000017  1.3115090100000000 42.5319164499999971
 33.9197599299999979 39.4050664900000029 30.9525269899999991
 19.1211651399999987 19.4225100399999988 34.1262845899999974
 10.4651832299999992 38.3345522199999991 38.8191027000000020
 32.6591613599999988  2.5250140399999998 37.9108971400000030
 18.4482222000000000  9.2705880100000009 10.7726875999999994
  6.5604521900000003 11.5199968500000001 16.5870668200000004
 28.8320621599999996 30.4687396499999998 38.1073517399999986
 20.2607557999999983 22.5226808200000015 38.6965609100000023
 23.0992193400000012 28.5795169099999988 35.9406798799999976
  5.0067090199999997 47.7585325000000012 27.6557394899999984
 10.0136047700000006 48.6554390699999999  1.9645243900000000
 17.7614097599999994 16.0137794500000012 43.5912510599999976
 38.1565370799999997 46.9186609099999998 11.9339663100000006
 24.1718146400000009  5.6885941000000004  8.2010060599999992
 34.3088285199999987 28.4809792500000007 29.8183336300000015
  6.7333099000000001 16.7394859099999991 40.5396822299999968
  0.4392904700000000 33.1549245300000024 34.8166094099999981
 12.7543385199999992 12.1675056200000000 49.2670044099999984
 30.5430628999999989 37.2581051800000012 46.9738208699999973
 39.0073195699999999 46.0200922100000014  9.6897389799999996
  5.4430114400000003 30.6932107700000003 10.7933918299999991
  4.5364822000000000 44.6564183099999994 40.4225023899999982
 30.9976425599999992 27.3785595199999996  1.4498713000000001
 17.9868842800000017  5.5640800199999996 15.4928683599999992
 38.6385404199999982 47.9488710400000002 26.6755652699999999
 36.2255570199999966 42.9368044900000001 38.8730891700000001
 40.0096727700000017 42.5702814200000006 28.7198444299999984
 44.4252738899999997  5.5783297200000002  4.9875940700000001
 26.4935094500000012 26.4133612500000012 29.3625547500000010
 46.4576068100000015 12.9976303800000004  1.1738686599999999
 29.2105601999999998 41.8852875899999972 16.0285296899999992
 41.4985410800000025 15.9799811999999992 25.5439785700000002
 17.6477603000000016  5.9073587700000001 34.9788040600000016
 38.7597544999999997 35.1938777100000024  3.5026191999999998
 18.5208656900000008 30.1896709399999992 47.7994732299999967
 15.7466029100000000  3.1551472899999999 28.5604314099999996
 15.1706746900000002 23.5294308399999998  9.1441113099999995
 35.0787513799999999 18.5744770899999985 31.2364332299999994
 40.7332807000000017  4.2487882099999998  9.3834412300000007
  7.4967994899999999 48.7089532000000034  1.3763581400000000
 32.4512741200000008  8.5641582100000004 37.8069861999999972
 22.0170097499999997 39.8829154900000020 12.1605664099999995
 32.6396236599999980 24.1548216499999988 20.0875531299999999
 11.5054174099999997 21.5504890399999987 49.0693089499999999
  7.8756031399999999 15.2619472799999993  7.5478944500000003
  7.4620160100000001 14.1030399400000004 29.7923174599999996
 19.4795378300000017 42.5923789100000008  0.1123712600000000
 38.6238196999999985  0.5377728300000000 38.3478894300000022