Na Cl 
 1.0000000000000000
    50.0000000000000000    0.0000000000000000    0.0000000000000000
     0.0000000000000000   50.0000000000000000    0.0000000000000000
     0.0000000000000000    0.0000000000000000   50.0000000000000000
 19900 19900
Cartesian
  5.6989303099999997 31.9217505499999987  8.8615741600000000
 36.4769440800000027 17.9991186399999989 11.1870622100000006
 20.9545325799999986 32.8291027499999970  8.7299090199999991
 23.5808189400000003 22.8238735699999999  0.8430693100000000
 19.4658422000000009 12.4098586700000002 22.4946243800000012
 17.1519432499999986 22.7102524700000004 41.2132745099999980
 21.5046931199999989 29.3771977699999987 42.5628753100000026
  4.2453545400000001  1.6737509100000001 30.7314788099999987
  3.9644175700000002 29.9660876099999989 40.0344061400000015
  8.2639714499999997 42.5681746300000015 43.3110019900000012
 28.0103777700000016 20.4191227300000016 34.1957328100000026
 27.6812855700000000 39.3666570700000022 35.4054155500000007
  8.8190794700000001 22.2687038000000008 20.1047635699999994
  0.7613728300000000 46.3931405399999974 29.5131135200000010
 26.8988816899999996 39.5045492499999966  2.9592722899999999
 36.4893796300000020 27.0034836700000014 47.5500936800000034
 24.4245492700000000  3.3996382500000002 37.7200866100000027
 11.4955885400000000  6.3565738500000002 34.9367452899999975
 31.8781697999999984 26.3998928600000013  2.9993026999999999
  9.2804737900000003 26.9229851099999991 44.6107269500000001
 22.4878024200000013  2.4952422799999998 37.5370656799999978
 35.4628511599999996 24.1395079899999985 12.7107476199999994
 29.5352094700000016 48.2655815099999970 49.6283941900000016
  4.4211521500000002  6.3042396500000004  5.3557572899999997
 14.2127920000000003 24.3951579900000013  9.4203417900000002
 27.6845179399999992 43.6930079699999965 48.3849219299999973
  5.3828301900000000 19.2269438299999997 47.2448982800000010
 45.0053099499999973  4.2443625899999997 35.0020191099999991
 28.9351762400000005 13.5070777100000008 13.4550642800000002
 39.2652707399999983 31.4052553500000009 28.1267145300000010
 25.6911290900000004 40.8066646199999994 37.6121895799999990
 48.0702639100000013 16.9255064200000014 16.9863685099999984
 39.8955699500000023 24.8441076299999999  4.9168612400000002
 37.6868022299999978  2.0851058400000002 44.3739024699999973
 42.1787514800000025 48.2760916699999996 26.2726789200000006
 14.9146586699999997 20.6683104299999982 22.2933223100000006
 33.8680796299999969 20.8142575200000017 25.2261492300000008
 25.8901226499999986 35.2913026399999978 40.9234647800000033
  0.6726073100000000  4.5110663899999999 17.4927928100000010
  1.3687589700000000  4.7319715400000000 30.2456710599999994
 38.9935532300000034 14.6491377899999993  8.0588625500000006
 45.3029596699999999  6.8431578399999999 12.9537758699999994
 14.1110648699999999 14.6672694499999992 12.7977242800000006
 41.3518947999999966  1.2958608300000001 29.5330385799999995
 11.7794393399999997 27.0369601599999996 10.1893450199999993
  2.3217191200000000 21.1333036300000003 37.4340897599999991
  4.7465968700000003 26.0535375299999998 31.8053279499999988
  2.1467766300000002 30.8747680799999991 12.2270679900000001
  0.3316352800000000 23.7942247800000004  9.5358141300000003
 18.4280437299999988 20.1309202099999993 40.3759691799999985
 48.9140409299999988 48.2858646199999981 40.5266471600000031
 31.3588663399999987 48.4665481400000004 27.2745327199999998
  3.0714581700000001 21.9975217299999990 12.3477967000000000
 29.4192172700000008 48.7846970800000008 24.4037989199999998
  4.6484063600000001 25.7657495700000005 44.9529895499999981
 24.8954264300000006 17.4320597500000005 30.6282444500000004
 18.9045283300000015 28.4076976999999999 48.1751682200000033
 30.0523210899999995 39.3605974500000002 33.5612636899999970
 14.1588618600000000 17.9912459399999989 28.8705503199999995
 27.3392901399999992 41.4494124200000016 40.2745452200000003
 44.2815100999999984 39.3402177099999975 41.0390390999999966
 43.1301079699999974 37.7245819800000035 37.0494007799999991
 39.2788609400000013  9.8158855999999997 25.5892258000000012
 28.1180605899999989 30.2443175000000011 16.2442543899999983
 17.1834526399999987  2.2885721399999999 14.0319911800000003
 35.6758100099999993  3.3389166900000000 17.1728834100000007
 24.6515124700000001 17.9700586999999992 22.7766188000000014
  6.6321171899999998 15.9935300500000004  3.2596272200000000
 34.5546844599999972 10.5816793400000009 46.2847421399999988
  7.6611371000000004 10.7313205099999998 11.3037650799999998
 32.3796304600000013  4.4490727200000002 25.5651227600000013
 23.0181439899999987 15.9460178900000002  4.7226494900000002
 23.5699761800000012 40.5896045900000004 39.4843815300000003
 14.0003936200000005  4.6155673200000003 23.8400151099999995
 29.1340088799999997  5.2873138400000004 13.8836466099999996
 42.4485296399999967 32.4377291799999981 30.9142510600000016
 25.8174824399999991 14.4273956099999996 31.2380855599999983
 18.5039780699999987 46.3593460100000030 11.5284519799999998
  8.6924100600000003 43.3358246700000009 45.2051654200000002
 13.2152187899999998  8.1822579100000006 19.2086365400000005
 39.5543213899999984 39.4795766299999968 33.2443937299999988
 38.5255014700000018 48.1032117700000015 20.6802633699999987
 23.1864382400000011 44.4674795199999977 14.9283512799999993
  0.7999592700000000 44.9154462600000031 43.9053618100000023
 17.4159203699999985  9.3737209700000008 44.1283849300000028
 15.7654739300000006 20.3203268000000001 23.7324908500000014
 21.9736928499999991 11.8556550099999995  7.9936869499999998
 49.8965345100000022 11.0554923800000005  9.6604652299999998
 13.4390905800000002 20.7953694400000018  7.7741332900000000
  9.8581277600000004 35.5532260299999976 43.0699056200000001
 25.9037805100000007 14.8391043400000004  0.8265932600000000
 42.5528537400000033 35.8128877500000016  7.2044535999999999
 35.2517211700000033 25.6777732299999997 16.3346547000000015
 36.5415613600000029  4.0217270599999999 43.1667440100000022
  3.4665313800000002 11.9929008199999991 14.6841518400000002
 46.5400025499999970 47.8227994399999972  7.7901790000000002
 29.5383770599999984  1.5032844400000001 15.7015698599999993
 46.2845855400000019  5.0291291200000003 24.5731679599999993
  1.2339108900000000 38.3402645999999976 34.8271310000000014
 39.5907606199999975  1.9137110600000000 13.7417350700000007
  7.3413666400000004 36.3490712799999969 18.8409447499999985
  9.7584550799999992 10.3544960300000000 28.0147969400000001
 44.6921496399999967 40.9589902700000010 47.7494486599999988
 24.9836238000000002 49.7651807700000006  3.3932516800000001
 30.3810408900000013 14.1543156099999994 41.5824028600000020
 25.4449085900000007  2.5787000299999998 40.2114437800000033
 33.7356902100000013 45.7453889499999988 42.7521156800000028
 34.8082537000000016 22.3199251200000006 30.9815116800000006
  6.2668672799999996 27.2383614999999999 45.1417905699999977
 48.0741462000000013 32.1751208900000023 17.2567863099999990
 34.8075082699999996  9.7914732099999995 15.2902521000000000
 33.2670974700000031 20.1071784499999993 41.3481411699999981
 38.2086721900000015 23.1534847399999997 40.6180234999999996
 17.1210450200000004  3.4036511300000001  5.1646063399999997
  1.5386910899999999 10.7811217700000004 48.3136088099999981
  6.8232929100000002 29.0839938099999991 14.6839926599999995
 43.8645582199999993 31.6299227000000016  4.1107866199999998
 39.9907790299999988 25.0231750899999987 14.5037236000000007
 14.0825326200000003 35.1256676900000002  7.0968327100000002
 26.4674335099999993 38.1550746899999993 22.3403395700000011
 24.0871921100000002 33.4377272400000010 37.8817950999999979
 29.3302750100000011  3.9321244700000002 37.2159884699999992
 39.1182445199999975 10.3356003100000002 10.4344285400000008
 21.4404292000000005 49.2936296600000006 28.0337259500000009
 12.8321034399999991 19.1625629400000008 15.1953462100000003
 38.1837790299999966  4.7741761000000000 39.5776919699999965
 32.2690057000000010 45.1788335600000011 20.6555596900000005
  7.9916792499999998 16.1531434500000017 35.8819131200000001
 17.3138213400000005 43.3953026300000033 44.8512668700000035
 15.2422797200000009 26.9953189999999985 10.3264482700000002
  6.6161410700000003 47.4829316399999968 45.6320068100000000
 37.1384222699999995 35.4630902800000030 28.1583486000000001
  7.3649591299999999 32.8681566200000006 15.1083242000000002
 25.6048053399999986 39.9633316299999990 13.7146657899999997
  2.3878691700000001 32.9171891000000016 39.1972236100000018
 37.7371328400000010 47.9915748299999976 44.3982366700000028
  1.1636777800000000  7.9324255499999996 20.2762214299999997
 32.4536219399999979 48.0239293799999984 38.1810252300000030
  8.4909848900000000  7.9830603199999999 21.2948748200000004
  2.9611712600000000 18.4053134699999994 38.1035315100000034
  6.0540050299999999 49.6625330999999974 28.1938050800000006
  3.2819325600000000  9.4405112100000004 16.6719628600000007
  5.6797469999999999  9.5078165000000006 47.8718965099999991
 32.9645958199999995 35.9619200200000009 11.9897161000000008
 11.1584385200000007 39.8762232099999991 49.6835092800000027
 30.7404347400000013  4.4866296300000004  6.7841086800000001
 20.5145865500000006 38.6562155700000005 45.0151516600000008
 19.6538942500000005 23.0006461100000017 21.8592360499999998
 38.1802666199999976 45.7410467300000008 19.7723962899999997
 14.6644869000000000 16.0312547700000003 37.2988453099999973
 31.6930844100000009 15.6697300100000003 11.1522829199999993
 36.4190566500000017 45.0851553600000017 46.2060724800000031
 35.4602269499999991 30.0343953399999997 38.0825562099999999
  3.5222454700000001 48.3796335099999979 16.5003197800000017
 20.8745595199999983 38.7217937200000009 47.1870817200000019
 23.2825200599999995  9.3147282499999999  2.6377515599999999
 32.6905475800000005 30.0332590400000008 18.9846499400000006
 25.0116185199999990 20.2724131800000009 18.4484001800000001
 12.2618263400000007 34.5153159199999990 48.9145951300000021
  7.6004179900000004 40.2252057500000006 15.0330767600000001
 10.9210568299999995  0.2021388200000000 47.3470665500000010
 12.1475094099999996 13.1905775300000006 44.0366237200000015
 23.5348010499999987 49.4013234700000012 38.0436230399999999
 49.1724251999999993 40.9503338099999965  2.2603746700000000
 40.1171575999999988 49.0677039799999974 30.9008475300000001
  0.5444436300000000  0.4641509400000000  0.9848220500000000
  1.9042132899999999  4.1127597500000004 23.1530621799999992
 33.5159847199999987  3.1551944999999999 29.3540252499999994
  3.1023923999999998 41.9091014199999989 16.2674883500000007
  7.6766249799999997 21.0359707600000014  1.5605173800000001
 27.6155711500000010 34.9043400400000010 37.2430896300000001
 44.6074569600000004 17.5290808899999995 11.2624539299999995
 38.0632816099999971 29.5739517200000002 49.4065903799999973
 26.5645551900000001 20.4789972999999996 40.5075529499999973
 10.4425080399999999  7.2326316799999999  8.8405864800000007
 33.7370031000000026 17.8110544399999995  0.3920065200000000
 38.4536503799999991 40.5018700899999970 14.9306715499999996
 39.7968006999999986 14.8293166299999992 36.3245291100000003
  6.3607619399999997  5.3259364600000003 13.0140612200000003
 27.3269166599999984 33.4883024100000029 37.8986732300000000
 13.0009420000000002  6.8322675999999998 29.9216085499999984
 42.4748759000000007 25.2392230899999994 45.6224833400000023
 27.0774313599999985 40.3888803199999984 15.9114768800000004
 24.1919267100000006 43.7122216400000028 21.3091352600000015
 42.6362947800000001 38.2062991999999966 33.2706983100000002
 30.6265353400000002 40.1794052400000012 45.2638758300000035
 49.9611157900000009 46.4731224599999990 23.7691235600000006
 37.6596837000000022 46.3039698299999998 30.8209241499999997
  7.2722082099999996 24.0033185200000005 23.7744013900000013
 26.3641442099999992  2.1716738800000002 49.3229487700000035
 20.7999351799999985 34.5105099199999970 18.1402032800000015
 32.3965499999999977 38.8158952499999970 28.7515212200000008
 26.8171733100000012 16.2318838599999999  9.2720400800000000
 35.1776548599999970 30.8452190299999991 15.5961976199999999
 25.2934437099999982  6.9084845300000000 10.8994665400000006
 37.3340933799999988 24.1073662800000008 22.5050011300000001
 41.5539731900000007 47.6274559699999998 24.6525364099999997
 35.1794620699999996 11.2189668099999995  7.1750918400000003
 41.7686165300000027  5.1379728399999998  3.9095013000000001
  6.9882733799999999  1.9106638899999999 12.5279312300000001
  6.9402047900000001 44.0219575300000017 27.0401706799999992
 14.1486391999999999 46.1789615900000001 29.8074434000000004
 23.7011425799999991 45.1032969399999999  1.1116358700000000
 33.2640495300000012 18.8804611000000016 23.9096288900000005
 49.1327768199999966 24.5799929900000009 15.9422658899999998
 41.6628531400000028 27.5726808400000003 14.0468164400000006
 34.8439281300000019 21.9000306800000004 23.8156066899999992
 18.9015593200000005 28.5075499299999997 26.3917462100000009
 16.0785377800000013 31.9844667300000012 12.9322474399999994
  2.2827525899999999 16.2227239999999995  5.3222696100000002
  1.3853164899999999 33.0141832999999991 19.3786776200000013
 47.4348420299999987 37.3899398800000000 12.7195270600000008
 27.0912275800000018 22.2618963200000017  5.6914626899999998
  6.4133972899999998 39.9682374599999974 46.1670312099999975
 29.2935150600000007 36.1075782200000006 10.0670635300000004
 47.1367175199999977 26.8113785299999989 18.8389795199999988
 26.7288288899999991 31.4271954300000012 46.8735372399999974
  3.5403931100000001  3.3869396900000002 24.2953882199999995
 32.5898138000000017 37.0005814100000023 18.7716994300000017
 45.9523018200000024 20.3366851500000010 48.6673644700000025
  2.3947105799999999 47.9006409899999994 16.0730653799999992
 40.0097578299999981 43.9997677699999983  4.0968487800000002
  5.7373728200000000 28.0249255400000017 14.9235074000000001
 19.3888922800000003 19.1125128300000000 24.0030907400000011
 19.9461328699999996 34.6550739799999974 47.8283221800000007
  0.6109184100000000 17.7057550100000007 30.6245175299999985
  6.2661819699999999 15.7202938600000000 10.9789802699999992
 23.7214717700000008 36.7759691500000017 43.7134868200000000
 42.5729892199999966 24.2297903499999983 30.0864370000000001
 12.7466277300000002 32.5722223300000024 41.3406993500000013
 13.1338997800000001 41.4536111700000021 10.8429602400000000
 37.6327499900000007 43.6291197800000035 24.6160598600000000
 22.1180441399999985 37.9679057900000032 26.5926527399999983
 42.7146833600000022  5.6832128700000002 17.7587002600000012
 20.4752672800000006 27.8171612300000000 23.0288130600000009
 45.2610511299999985  2.4863598599999999 38.2502460099999979
 21.8846884899999985 15.9594360599999998 30.2418276100000014
 24.3966579599999989 34.6302511299999978 30.6307952999999991
 11.7765965000000001 29.2573671500000003 28.5696204000000016
 19.6099845600000009 35.0104175700000013 20.0880503399999988
 19.8620231899999986 21.0237789100000008 46.6520827000000011
 31.5539644000000017 27.4796941200000013  1.2190962700000001
 39.3509790299999977 21.9044760899999993 48.5296494999999979
 37.8191786499999978 26.9356187100000000  6.9436468199999997
  1.8721311800000000 14.9087885199999999 22.0087082199999990
  0.3591001500000000 35.3962229300000004  4.3187239200000000
 34.7929695600000031 15.4393114199999992 38.5070720200000025
 38.3593869099999978  6.2158106899999996 19.1301915200000003
 21.1288517700000007 12.6116517300000002 14.0306117500000003
 12.4917563600000001 48.9491001900000029 37.5269450699999965
 15.3657156300000004  1.5826726300000000 49.9789590899999965
 46.3655050099999997 15.0427510299999998 23.5166174199999993
 43.7890389399999975 12.3775311299999995 29.1657652399999989
 39.0163484400000016 47.7683050099999988 41.9022726800000029
  1.4969136999999999  8.6286207000000008 21.2281094699999997
 30.8359127599999994  9.1858166499999996 36.0205131299999977
 46.7641506800000002 15.0804698100000003  7.4560493000000001
 13.8206400699999996 33.4977238099999965 46.2441239999999993
 24.9919909900000015 40.3925141699999983 26.9857233500000007
 49.0523701299999999 23.1847689099999990 16.4111196799999988
 21.6885262499999989 19.0606884000000001  2.9900204900000000
  3.2743247900000001 31.5768121199999996 11.4812844700000003
 15.9481195299999996 40.0450105500000006 36.4923133200000009
 26.3100013299999986 42.1922850400000016 25.7346440899999997
 22.1632625800000014 47.9541451400000014 15.3174148199999998
 39.7909559300000026 16.5962515500000016 33.1997607500000029
 38.3789648699999972 35.2625926899999982  8.3953205099999995
  0.1517603200000000  0.6356554800000001 33.4616646799999984
 40.1982634700000006 12.2142215099999998 34.4208907000000011
 11.9100463600000008 22.1492264299999988 12.0485923800000005
  0.6920882500000000 31.9272243600000003  0.8597621700000000
  0.0227881800000000 33.0009890400000003 47.6228091600000027
 46.5535888900000003 26.1684708199999996 13.4890486799999998
 10.4411343399999996 34.1448423599999984 22.3655641400000000
 48.0365277499999976 49.9218802700000026 37.0416406200000026
  8.8539825099999998  8.8840373600000007 14.0159100100000007
 15.3995826900000008 20.7862911799999992  5.1959340300000001
 28.0631614700000007  7.5549049799999999 25.2880052100000015
 15.5035353100000002 17.9179636799999997 47.2156453600000034
  3.3516191200000001 30.6625406600000012 45.3209287900000035
  8.8502253700000004 45.7377596299999993 14.5260556899999997
 39.4179842899999997 48.0618800299999975 26.0175976800000015
 27.7641919100000010 32.7734400200000024 23.2064248599999985
 30.3826831900000016 41.7563547099999965 49.0536261800000020
 44.2952260300000020 19.8639676499999993  3.7043490200000000
  8.9940321200000000 12.6978542000000001 12.8355668699999992
 27.3723582599999986 47.2253292299999998 16.1084029199999996
 33.9278765399999997 25.8210305899999994 24.0611988200000013
 46.5686212299999980 28.8169753399999991 26.9045499300000017
 34.7706377399999980 40.1085555700000000  4.4935325600000002
 22.8018152600000015 30.1091314399999987 44.1721686400000024
  1.6382782700000000 34.5429303800000014 13.0308144099999996
  8.8977687799999998 44.7998867299999972  1.6963483800000001
 10.5271783200000009 30.2860927000000011 18.3599715199999984
 26.0413477100000001 26.9309379799999995 28.2745482999999993
 10.3332736999999995 21.3311484900000004 12.6126401000000001
 30.6420805099999995  1.4470902299999999 21.2454591499999985
 22.4319525900000016 13.8271229600000005 42.4556540100000035
  2.1768743399999999 36.7270580200000012 21.6641392400000008
  9.1882518300000005 26.9485111699999997 23.6272453700000007
  3.1128887299999999 18.3209429800000017 20.0886870100000010
 30.5626265600000018 16.0646176499999989 48.0288538599999981
 20.9468367399999984  3.4850459100000002 23.1666033499999990
 11.1024982800000007 49.6886142999999976 16.5405296100000001
 46.6811537500000000 20.1510667199999993 28.9783567300000016
 39.2416033100000021 33.6269071899999972 17.4292228499999986
 32.9484376500000025 14.3916025399999992 29.6638211100000007
  9.8414641899999999  5.4885586699999998 46.2056494500000028
 28.3503618000000017 34.5307566899999969  8.4276081299999994
 42.8098996100000022  5.9828064200000002  3.0275000300000001
 33.1929594699999981 24.0697547000000007 40.3671994500000011
  1.5212026199999999 16.8524325899999994 38.8345464300000032
 42.2218718100000032 22.9994503700000017  1.7622937500000000
 18.8709831900000005 14.6144482100000008 25.0311366600000014
 48.3138980599999996 11.6846421800000009 33.7810989399999997
  8.9298740999999993 34.3940024699999967  9.9994412700000002
 10.6093743200000006 11.7541406599999991  1.8420578500000000
  9.4662090100000000 48.5748462600000011 47.4411005099999983
 42.5763427199999995 30.5921712100000001 12.6215288200000000
 30.0349474799999996 47.3622822399999990 17.8776468199999989
 19.6101601599999995 37.9617414100000019 22.9879591300000001
  8.6290229400000005 27.9885272399999998  3.1773108300000001
  1.0631287199999999 18.0044685999999992  1.1038273100000000
  2.0256200099999999 44.5955353800000012 17.1630709299999999
  9.7330854799999997 33.9676376800000028 44.0865267300000028
 12.2547064700000004 14.8516952100000008 12.4414437499999995
  3.3451203700000001 21.4381225999999998 10.5264921699999991
 18.7539375899999996 47.4291425700000033 41.5990933300000023
  5.9615487700000003 45.7502214699999996 23.9722192599999993
  1.0891564400000000  5.4523346300000002 37.3880802600000024
 31.4649214199999996 30.9342778400000000 12.4077104600000006
 36.3896263899999965  0.4507917900000000 26.4576362299999985
 23.4921786600000004 33.0467014299999988 15.9108696999999992
 13.9871238299999998 31.5902617700000015 37.5295251499999978
  8.7292797899999997 13.0054374799999994 32.3876451200000020
 39.1514532699999975 18.4750806400000016 10.6803054700000004
  3.8940985499999998 48.1142834300000004  6.7615841500000000
 41.9448877900000028 17.7290530699999991 22.1949895899999987
 31.1901184899999997 12.3214202099999994 36.1094006699999994
 40.6971248999999986 46.5781734299999997 39.3608532299999965
 37.8602883300000030 17.8658889000000016 21.9947276699999996
 15.3880158700000003 26.3828006500000001 15.7304624400000002
 31.8822318399999993 44.6704858700000003 26.8559437599999988
 17.8467793899999982  0.8212731500000000  3.1377589100000001
 36.3140203000000028 29.7391736800000004 26.2920155499999986
 39.9054248099999995 40.4747342200000020  8.8580032899999992
 26.4612140499999988 33.6245215900000005 27.3343418199999988
  8.2828908000000006 10.5457312699999992 42.1054706899999971
 16.6458397699999985 16.6290405499999991 34.2845518299999981
 20.4626095600000006 15.0788354299999998 29.9870584800000017
 42.4918151899999970  9.9378836899999996 26.0110990700000002
 18.5421217600000006 37.4403398400000000  9.7917337500000006
 19.6691056999999994 28.6595635699999995 31.2849465699999989
  6.0969523399999996 21.4780042999999985 30.8182353099999986
 12.0807955099999997 41.9301328399999989 19.7427167200000007
 15.8398852300000001 20.9510466599999994 24.2412937900000003
 23.4247586800000001 49.9191330299999976 40.8688012200000017
 31.9421636800000002  1.9449494300000001 38.7651078399999989
 25.1673839900000011 38.2226706699999994  8.4258842299999994
 13.8362893000000007 46.5142110099999968 14.3444678999999997
 37.4720722599999974 43.1184929799999992 42.5114535499999988
 39.9997457799999978 25.7273502299999990 49.5753190000000004
 12.3864540699999992 29.1334790300000002 46.3820795700000019
 43.6114079099999969 26.9326700300000006  7.3851200800000001
 21.7131616200000011 33.1073190199999985 34.7108359599999972
 35.0199969399999986 31.0885968800000008  6.0476997399999997
 43.6895801399999968 40.7734525300000001 29.4167507099999987
  7.3292017500000002 31.8937833799999986 38.8172714900000031
  1.8819642500000000 30.1731410300000000 19.9813651700000001
 26.8044332400000016  2.1094646500000001  3.7724523799999998
  3.6071887299999998 26.0209121900000007 33.4711143399999997
 49.0187748600000006  8.5490107799999997 33.2241945099999967
 49.0371689199999992 17.6980315799999985  0.8167483100000000
 27.0889288199999996 33.6266331500000035 12.8234045400000003
 22.9601153999999994 40.6594907599999971 14.0611841599999998
 26.3222471200000001 48.0074045900000002 10.4490072299999994
 16.4644847900000002 18.5959218399999990 41.6583469600000029
  1.8372968300000001 29.4478444300000000 29.9213129000000002
 37.5059140600000021 11.8975309899999999 11.8034217100000003
 30.1086731599999986 36.4698473300000003 48.7240771800000019
  5.5650921300000000 32.5034819500000012 36.0210695900000033
  6.1166619400000002  2.7373008900000002  5.8160723699999997
  0.7282886000000000 40.3464313599999969  2.4717860599999999
 43.3083673000000005 33.7291718199999977 36.1906980999999988
  7.0630194199999998  8.1673692899999999 18.9757408900000009
 25.2771305300000009 32.7327687200000028 39.6438986900000003
 45.0053603100000004  5.0907844200000003 10.8138067899999992
 47.6507716300000013 16.5188452300000002 32.2317904000000013
 19.7012721199999987 19.2804989499999984 47.3458438400000006
 41.5974203199999977 27.8433606199999986 13.3618701099999999
 22.9509030600000017 35.8276884699999982  5.9601220599999998
 21.7714000100000007 11.9200168200000007 39.7227491900000018
 20.2456409700000002 18.4877349799999990 23.3618901000000001
 43.2868890900000025 22.7449334599999986 24.0966038900000008
 41.6215634899999998 33.6175189300000028  9.6406182600000001
 29.8710150600000013 42.1500301399999984 15.5565926599999997
  9.6529118300000007 36.4891201000000009 22.6414567700000013
 34.9638720900000024 37.7982238700000011 24.7486107199999985
 49.9003149300000004 24.5930885799999999 36.0397267099999965
 19.6867987400000004 26.0263767699999988 25.3143402399999999
  8.1164137299999997 12.5655017200000003 38.3873293799999971
 25.8449244699999987 25.6455103499999986 24.0924869299999997
 22.4278502300000007 44.8787663800000018 27.4265597499999991
  8.1896666499999995 43.7273454099999981 25.4943473800000007
 33.4964979399999976 25.6408155999999998 45.1878146900000033
 21.6015696400000010  7.5809282800000002 12.6615207200000004
  2.1788009000000002 19.1067042399999991 26.3781345599999995
 37.3075032300000018 27.2068114600000008 14.8802288600000008
 42.0065246300000013  3.6593763600000000  3.1385504700000002
 49.6176740900000013 24.2483488399999985 41.9989487799999992
 26.3321748800000002 14.8632492900000006  6.6308830900000002
 45.2520862399999970  1.8134901999999999 29.3298031799999990
 46.0020558200000025  6.5521524099999997 22.0255304000000010
 33.0894288799999998 34.0311206599999991 11.0448822700000004
 31.3362503299999986 18.3593591300000014 15.7488895000000007
 41.5857509000000007 31.7153296100000013 39.5447811800000011
 29.1372277400000002  9.3867000199999993 12.2672968400000002
 26.4579367000000012 28.5421434199999986  7.8045007999999996
 20.2450160500000003  7.9847474399999996 49.6502019699999977
 20.9445033599999988 14.2678921899999995  0.4639967600000000
 48.3935111899999981 49.7425590900000003 23.1905809699999992
 14.0943823199999994 34.2836775500000002  5.7686012699999996
  2.8815966300000002 30.9946373000000008 26.8691289100000006
 39.4496423399999969 30.1387680799999984 42.2751790599999993
 18.9344195699999993 30.7897755099999983 33.7569767999999968
  3.5090763599999999 27.0463889799999997 18.6596263799999988
 12.3404889900000008  6.5984392100000004 49.9678087400000024
  8.9615278200000006 16.3981052900000002  2.9555929100000000
 24.6501055700000009 44.3242492600000020  7.6573018499999996
 46.2721693299999970 46.3499497399999996  3.6052338300000000
 43.1650313999999966 24.6827105200000005 42.3156678900000003
 49.4301829500000025 23.0848144799999986 36.4770449600000006
 19.6947015400000005  8.8488634299999998 22.8475861400000007
 49.3801839599999965 32.7518943600000014 11.0885369199999992
 15.0399764400000002 26.8839788300000002 39.0321666999999977
 13.6257642499999996  8.2197125599999996 48.7089517799999996
  1.3524877099999999 31.2610202800000003  3.9679255100000002
 38.9240838300000007 47.0769356500000029 22.0573971799999988
 18.6744869499999986 12.1022372100000002  2.3007838500000002
 19.2742205099999993 41.8240810699999983 37.3305542299999971
 14.6250033100000003  2.4306660299999998  2.2039603900000002
 41.9623047799999966 10.4563945700000005 40.6235720000000029
 10.3745826599999997 15.6107133999999999 19.2601568199999988
  5.4555985600000003 42.2450589899999969 12.7064639100000001
  7.5388733800000001  5.8448948900000000 35.1484576399999966
 40.1275619600000013 23.9338376199999985  6.0088879200000003
 41.3793117000000024 12.0917429500000004 25.9237696299999989
  0.7961790800000000 31.3817632499999988 33.2949944000000002
 38.9708733100000018 33.4677796000000001 42.9717966799999971
 26.9867811199999998 16.8303592199999983 17.8474255200000016
 11.6807518100000003 18.3956969599999987 26.4788320199999987
 29.7297240599999988 17.4722868099999999  6.7244143500000000
 17.2319626300000017 17.5958939200000017 34.1891326399999969
 16.7522842800000014  5.6419628700000004 24.4699536900000005
 16.5117294799999996 12.6374330700000002 47.3375458000000009
  2.1323027600000000 37.6124282099999974  2.0808868399999998
 23.4650403800000014 26.9337273599999989 25.1556741200000005
 41.4149194900000026 10.5518950700000005 45.7003813399999999
 36.3092650099999972 49.8170734400000015 25.5532763600000017
 23.9157013499999991  1.1925451499999999 43.1062739500000021
 37.1463502200000022 18.7082008799999997 28.7321542299999990
  1.3161278999999999 20.1616731300000005  7.2403519899999997
 38.5959190299999975 31.6110756899999998 37.3490564499999991
 25.5916983699999996 19.6745160800000001 19.5918000899999996
 29.3840455700000014  7.6539397700000000 39.7657832800000008
 43.5195560800000010 33.1789856899999975 39.2125440900000015
 45.2285946599999988  6.9903790800000003 37.3011143599999997
 19.8290252199999983 16.4269046199999984 36.9860087699999980
 23.8493866399999987 36.6412554999999998 29.5812526899999995
 22.1138860900000012 18.0835154500000002 29.6440965600000013
 28.3309411400000002  8.1277222200000008  2.6273139099999998
  7.2648285499999998 49.9733664099999970  2.3692449299999998
 19.8995939799999988  2.4759906400000000 13.9746119300000000
 21.3027635000000011 35.5461276099999992 23.7666892199999999
 46.7457731200000026  6.2088938000000002  2.8780851799999998
 21.9775519899999985 26.7162989300000007 20.8360340300000004
 41.2239597399999980  1.0913013700000000 41.5021567100000013
 26.7478253099999996  0.7000161800000000 15.1719436400000003
 44.8566783899999990  6.1936908400000004 47.3619989600000011
 13.1164750800000007 48.5967432599999967 15.4639840700000004
  3.1802035000000002 49.6801432500000004 24.1675245499999996
 33.5850367500000004 13.7126218800000004 18.0359778999999989
 30.6805817099999985 48.5367790600000006  7.6455878400000001
 49.3947634700000009 27.7896460999999988 10.5819583500000007
  0.9739112800000000 18.5269030800000003 31.6601136600000004
 11.5303070099999996 39.8699259600000033 43.8455611899999980
 12.3469276600000004 14.8132556399999995 16.3875748899999998