Na Cl 
 1.0000000000000000
    50.0000000000000000    0.0000000000000000    0.0000000000000000
     0.0000000000000000   50.0000000000000000    0.0000000000000000
     0.0000000000000000    0.0000000000000000   50.0000000000000000
 1200 1200
Cartesian
  5.2536772599999999 48.5536895199999989 41.8597961700000027
 37.5942931499999986 47.2848926200000008 17.1902518099999995
 16.5621723400000000 10.4304483700000006  4.5457119099999996
 49.7801441699999998  4.8830622400000001 19.6270075499999983
 21.1158680399999987 44.3940848100000025 31.3833781400000014
 10.4364516700000003  5.4432644100000003 34.9448858700000002
 18.6968005999999995 37.1277646599999969  6.3405857200000000
 16.2242265500000009 30.5756152999999991 34.3663180400000030
 44.7073100100000005 45.7593550200000010 27.4797998700000008
  2.9964647300000000 11.5826663399999994 19.8731465800000002
  7.9746093199999999 29.2587949599999995  2.5668338199999998
 40.7759891299999992 22.0493319800000016 33.1225540200000026
 40.7653763799999993 43.6808981000000003 44.8543195600000004
 16.5488260400000016 36.1192703399999999  6.5766300299999996
 33.4209784299999981  6.3845108499999998  4.4738992399999997
 42.8244779600000030  1.0009922300000000 23.6764511000000013
 30.1135888200000004 19.0873491400000006  1.0770528800000001
  2.0277795599999999 30.8911054500000013 36.8093636799999970
  4.9752971600000002 19.8194458699999991  5.4267494000000003
  7.3772216300000002 38.9638515099999978 15.4523922700000007
  8.3568282499999995  3.2123377799999999 39.7610591400000004
 14.1210399399999993 32.3182732699999988 23.2188754800000012
 39.6402312600000002 33.3668326199999967 46.3558158800000015
  2.1975292600000000 33.8742755299999985 24.9487963400000012
 14.4200669399999999  8.0651208800000003  0.4866232900000000
 28.6775761399999993 34.0222143499999987 11.3565698600000005
 19.8695559099999990 47.6262585899999991  4.5282018199999996
  5.4879201399999999 35.4737406100000001  7.1583704800000003
 10.7326967500000006 34.4342080999999993 35.7355981799999967
  8.1985540300000004 43.0975159099999985 39.9499537800000013
 38.8732512400000019 42.7336405900000003 24.2974446499999992
 17.1522344099999984 27.6036898499999985 35.2153110200000015
 13.7323955600000005  0.3721829000000000  5.2780672700000002
  8.4766061799999992 16.3200390099999986 40.8957007300000015
 34.0421669099999988 46.6992746100000033 24.7083566700000006
 23.3506069399999987  3.6508313900000000  9.5231092799999999
  4.8976893600000002 15.4650055399999999 20.3481270999999992
 40.9722140900000014 20.0022915700000006 28.5144240300000007
 41.9246092200000007 26.9071071999999987 27.7507098100000000
  6.1797013999999999 12.2414310299999993 41.7312992700000009
 27.9468278499999983  2.3357266100000000  6.5571433700000004
  5.9085561200000001  5.1027473299999997 11.8744070199999996
 23.1588378000000006 30.5868339599999999 22.9184236000000006
 39.9454763600000007 13.6211455400000006 30.5930864199999988
 28.0034749699999992  4.4037640600000003 14.0625243599999994
 48.8469291700000028 20.3385700299999996 30.3465506400000002
 34.4766670799999986 49.3435559300000008 17.1445585200000004
 48.5949929299999965 36.0462272899999974 28.9421309600000001
 30.3950765499999989  0.0516506800000000 18.0930518900000017
 39.9230518600000011 36.7325508899999988 13.9828170699999994
  9.2065204000000005 33.9883254499999978 41.7858945899999981
 45.5303170700000024 28.0389911900000008  1.3248606599999999
 16.9330977199999992 44.5734054500000028 45.2254374700000028
  3.9275954999999998 11.0975036899999999 15.7445429000000008
 18.5324636399999996 25.1163542600000014 30.5660821899999995
 24.1433212899999994 26.8008854800000016 42.4823138599999979
  0.2490366300000000 35.5587153199999975 35.3283204100000034
 13.0810803799999995  3.7179377200000001 37.3792266600000005
 32.6625540100000009  9.5452012300000000 26.1970823999999993
 44.3638724500000023 23.6042360900000006 16.3959395699999995
 16.5563234399999999 12.1281199199999996 37.3115184899999974
 44.6912456700000007 25.7660509399999995  0.0182157400000000
  6.1519126899999996 45.1965843799999973 18.9936253099999988
 25.8605814900000013 38.7930892400000005 45.4507822400000023
 41.2970782700000001 29.9944549000000009 16.8035165999999982
 16.7034132900000003 34.2672483200000002 29.6425542499999999
  2.4092235099999999 41.8196132400000025 12.2396717400000004
 12.1628848900000008 21.6063335599999995 37.6482076699999979
  3.4262299800000000 34.6472510799999966 16.3488404900000006
 24.9621178800000010 38.3152734399999986 14.8007629499999993
  6.4229143600000000 49.9216157899999970 32.5966542000000032
  1.9672065999999999 12.8412966900000001 23.6734840899999988
 30.2470944499999987 12.9164161499999999 36.2061550100000034
 16.8472161100000015  1.1612100800000000 16.4577556200000004
  5.4986249400000000 15.3894476900000008  0.4473208500000000
 18.1214450499999984 17.1269171299999989  2.0961240900000000
 29.5575386999999985 23.5529010099999994  3.6072094500000000
 26.3691856199999997 36.9026867099999976 23.4556125400000006
 18.4798813700000011 41.3662593500000000 42.7209605199999984
 11.1834531199999994 10.2966489600000006  5.7789885500000002
 27.4605025199999986 28.6658528399999994 36.9886724200000003
 18.6173927600000013  2.5201026400000002  5.3650066000000001
 19.6660080099999988 26.5965986699999988  9.0337711899999995
 30.5923804299999986 16.1379165299999983 29.9631602000000008
 40.8335444699999996 39.3819200300000034 41.9299294400000022
 16.3241586299999994 10.1340242899999993 22.5463118700000003
 35.8636696299999969 10.6954570400000009  8.5465449200000005
 41.7804387400000010  3.8338356000000000 35.2748800000000031
 14.9081608800000005 11.4599364200000000  7.1513513800000004
 42.7627023499999979 12.7384108999999999 44.4720235599999967
 41.3000191100000009 29.4211073200000008 30.5507559499999992
 16.5552038099999983 43.3103976700000004 17.8537070600000014
 17.2545599400000000 47.3888541999999973 14.4725819199999997
 40.6843054300000020 31.1213582700000018  6.6683871200000002
 25.5823879400000003 13.1940891100000002  3.0556656200000001
  6.5720780799999998  6.9162623300000003 41.6209643700000029
 23.5481122399999983 23.1223932599999991 18.0634789299999987
 42.8902974299999968  7.2289381700000002 46.7637821100000011
  8.8858985399999995 45.2967339899999999  2.2081227100000000
 11.9183064000000005 10.9757122599999999 18.7960123000000010
  4.5787804100000002  5.5623220800000004 35.9471504500000023
 13.7576317499999998 24.5167864599999987  3.6300344600000001
  9.9892404700000004 39.1645380000000003 38.3901870500000015
 23.8737873399999998 46.7437873300000035 22.8337334100000007
 16.5574380499999982 30.8613173799999991 36.1612179700000027
 11.5904517100000000  0.7218229100000000 31.6776855099999999
  6.8603076099999996  1.1899553700000001 49.5799213199999969
 39.7375919999999994 19.7088132000000016 46.0234619699999996
 16.3252601199999994 28.6469094599999998 18.6072751300000014
 32.4730558700000032 24.6500153699999984 42.8082815300000021
 28.7877385200000013 35.5212601500000034  5.8193961700000001
  6.5913471000000001 30.7706396499999997 12.1405497699999998
 46.2200104899999999 19.7163724000000009 23.0708707500000010
  2.1246351799999998  8.7434319800000004  0.8613214600000000
 26.2297769699999996 43.8614758399999971 29.8244453400000005
  9.4528411600000002 23.9013073399999989  9.2724276099999994
 41.6907593600000013 46.5925117700000015 30.3453283300000010
 13.9332304100000002 25.8034589399999987 28.7343287700000012
 37.8637070699999967 25.3247440899999994 32.9739383599999982
 42.9819751499999967 48.0563430300000007 32.9573713600000033
 14.5404967799999998 32.1293477600000017 47.9477759000000034
  8.2695100499999992 35.6554019200000027 10.3400662099999998
 35.4928316000000024 28.0207268300000010 44.3558750199999992
 39.1914311999999967 40.3841429800000000 36.2910831700000003
 44.2349204300000025  6.3076688000000001 12.9895318399999997
 15.0615676799999996 39.7680683199999976 31.9243326699999983
  2.2591830200000000 20.0890873399999990 37.2909562099999974
 49.1010843299999991 41.9243449299999966 22.4652513300000010
 23.4790491500000016 12.3790896099999994  5.3590578799999999
 19.6857059899999989  7.6606273500000004  2.1637940800000002
 16.8870847499999996 21.2334235500000013 20.1496561199999995
  5.2703276499999996 28.3968706299999987 16.2046478900000004
  1.5170937400000000 47.7945068399999968 32.2764181699999995
 19.7601533799999984  8.8978908299999997 46.8511781200000001
 27.7506206999999989  4.6821256399999998 42.4856698299999991
  6.6528972499999997 15.2440843000000008  7.3248477899999997
  8.7168394899999999  3.9212434799999998  4.3391745799999999
 28.5071501900000008 19.6731995200000007 47.4643062800000024
 32.5956284000000025 34.7264977600000009 48.2477961100000030
  0.7092206500000000 19.8714802800000001 29.9691208799999984
 41.0145928600000005 32.2621572199999989 30.0764208599999989
 44.4053381399999978 20.5181569000000010 48.6629452800000024
 28.1212923500000009 34.5604941200000013  8.2246361799999992
 31.4602845000000002  3.0016406700000000 48.5747172499999991
 45.2728049099999978  0.0321376600000000 40.1376570799999968
 43.6024794300000025 26.8718224399999990 34.7197100400000025
 34.1667246000000020 40.1403517899999969 38.8925043799999983
 16.3211387200000004  9.3784543700000000 23.6826458100000004
 34.2281704000000033 22.8599070900000001  6.4584795200000000
 47.6652637999999982 10.0887614100000000 11.8130455800000007
 41.8570292799999990 41.0911809600000026 19.4784141499999990
 23.7065672499999991 36.2758029900000025 37.4208308700000032
 31.9044283499999999 17.7272901300000001 42.5651382200000015
 42.2779872699999970 16.1321220300000014 32.5749516899999989
 37.2130061699999999 38.9946539099999967 33.1483268100000004
 23.9286965599999988 19.6030320700000011 18.1599852900000016
 14.8728470200000000 17.9397885799999983 14.0266156399999993
 45.3289859200000009 44.2663707999999971 34.8939961700000012
 13.3936013599999999  6.2580963599999997 29.8255659500000014
 28.2869987800000011 19.5884738700000014 23.4802899499999995
 33.2332331400000029  0.9493441600000000  5.6272268800000003
 26.8021505699999985 13.7446025499999998  5.5349745800000001
 26.3177886699999988 23.0742234400000008  8.4733198900000009
 11.0873945599999999 45.8403273699999971 38.3821060100000011
 38.0557578499999991  3.1221296399999998 23.6328930200000009
 48.0330517000000015 41.4999903399999965 40.3375989199999978
  4.0251271400000004  0.3117617900000000 39.7804375199999996
 39.8134400799999995 44.4874040999999991 49.8006912399999990
  0.2176926200000000  8.7599306899999991 28.1550627800000015
  2.1401410500000000 19.3505713999999998 25.0535855000000005
 25.6114205000000013  1.1443420099999999 32.9561381999999981
 43.8147057099999984 43.7587870300000006  3.9335390100000001
 10.9901503700000003 11.4572870099999999 12.6228321599999997
  1.9401724000000000  8.4775161499999996 31.6139384999999997
 35.4644006999999988  0.1825343400000000 17.8545728200000013
 31.8053456600000004  2.4445699799999998 35.8876069200000032
 13.0095775099999997  1.9691549699999999 45.5876083100000002
 40.9328539099999986  8.4756906900000004  0.9333970500000000
 37.6042112700000004 13.9787314800000004 40.5399131100000005
  4.3196043499999996 49.5902859099999986 13.9353537099999993
 11.4897461700000001  8.1638145800000004  9.2315858700000000
  5.2637820399999997 18.3847285000000014 42.1318346600000027
  9.7451270399999999 36.3501116799999977 36.3270102700000024
 48.0616139500000017 21.5456102799999982 17.0720469100000010
 29.8923377799999983  0.5210437999999999  7.1832258800000002
 28.4772868400000014 17.7599212199999990 40.9960074800000029
 19.8976726100000008 20.1836084299999996 25.9069544200000017
 18.1828545699999999 49.2367982600000005 22.8684028700000006
 49.2470647900000031 45.4179312099999990 39.1698148099999983
 27.0774295400000007 40.3583574800000022  2.9141031200000000
 27.3311701499999984  4.9767071400000003 43.5169093499999988
 38.6954680999999994  4.7322959700000000 35.6983025299999994
 31.3705525700000010 44.8771110699999980 49.6057736200000008
 24.2372647299999997  5.7082726199999998 38.9378924999999967
 29.1593070300000008 30.4732158200000001 13.3383262499999997
 27.2492819799999992 28.6822805800000005 13.0896750700000002
 48.1688438199999993 23.7580956800000003  2.3140416300000002
 42.0976057399999988 34.4596369400000029 13.1179707000000008
 23.7334760500000002 38.5319422900000035  6.3540295000000002
 42.1738549800000015 15.9806449500000003 36.6996853099999996
 11.6109795699999996 45.7336155699999978 44.8768477400000023
 45.1799618100000018 39.6180697699999982 10.8985713299999993
 22.2882897900000003 49.2865504500000000  9.0533472899999996
  9.6078569599999994 29.2518929499999985 36.5647799699999965
 44.2570205299999984 27.7440233099999993 43.7996912500000022
 41.4108150799999990 41.5691024600000034  1.9050192600000000
 17.6586396599999986 38.7567803700000013 35.2076398800000021
 34.8035276100000033 42.8885382300000018 27.6620890599999996
 16.7308454500000003 45.3194440299999997 33.8958469800000017
 37.5002651400000033 16.9562368300000017 33.4723463699999968
 19.7253913200000000 24.6519905600000016 26.0053920199999986
 22.6237053900000014 36.6164148299999965 12.0839758600000007
 45.3822782900000021 39.9512875100000002 11.2891467599999995
 36.6895508400000026 41.2810095500000003  9.9275829499999997
  2.8867239100000002 17.1688326199999999  6.5699262799999998
 20.7510012999999987 12.0788442000000007  9.1345150999999998
 23.7952815899999983 27.2977591599999982 43.4382346399999975
 16.4096418399999990 46.8503694500000023 14.1593478499999996
 26.1592362200000004  8.2831459400000007 14.8337989900000000
 11.6595943299999991 12.8018704299999992 11.0363214099999993
 37.4539299600000035 38.2007987200000017 40.8240593499999989
 29.9654306300000002 28.9925730699999988 28.1755696600000007
 46.7993557699999982  6.7723777900000002 23.3534748100000016
  1.8510917400000000 11.2989466000000007  1.3954919100000001
  4.0324824899999996 23.9331774300000006 44.9130528999999967
  3.6801717300000001  2.6462009399999999 24.6992351600000006
 20.0453379799999993  1.9953466000000000 35.7903563100000000
 28.5185332500000008 10.9884047500000008 32.1185765700000019
 16.9164198799999994 14.2688598800000008 16.7279747199999989
 47.0710515000000029 23.1626125899999984 44.0297310899999985
  7.6904485500000002  3.3687859599999999 19.1855566000000017
  1.6497206900000001 26.8556063700000003 12.1761835499999993
 45.1168740099999965 29.3015624999999993 21.3609351600000004
 13.2373066900000005 29.4135615399999999  3.7287466000000000
 19.0441272800000014 24.6471543699999991 44.7234601199999986
 17.1942763099999993 34.2019599799999980 32.3413650899999965
 11.3230485999999999  6.4777991799999999 22.3707587799999992
 35.3428073899999973  6.5637325400000002 16.6528551000000000
 34.5356413599999996 40.5242650699999984 41.3230743900000022
 16.9113017700000015 28.2488440300000008 28.3216037699999994
  1.1945397799999999 26.6301353600000006 22.6849720700000006
 16.3255571900000014 33.6397417299999972 33.1392210599999970
 20.8883501900000006 20.5016759300000011 21.6673886300000014
 13.8006565200000004 47.6341741800000023 37.5655223099999986
 13.7334505599999996 18.1036050999999993 17.2908844299999984
  7.8945712500000003 34.0589247799999981 28.3487817399999997
  7.9747118300000004 30.9817701499999991 10.6108935399999993
 37.2876703700000007 43.8758749300000019 21.8298703100000004
 44.6302465099999992  0.5531577200000000 46.9217381200000005
 13.6525709699999993  8.7603117099999999 34.5589894299999969
 32.9352891899999989 43.4054574900000034 15.5240318599999991
 12.4034330100000005 14.4985549700000007 27.2133557000000010
 24.8692832099999990 28.0428628300000007 16.3956425900000013
 11.5650564500000002 23.9037316199999985  0.0172886100000000
 40.5696114899999998  3.4603913300000002  8.7971350000000008
  3.4479218999999999 49.2234016100000034 47.7108030099999993
 25.4661952300000003 10.3431700800000002 37.6594959000000031
 43.1475951099999975 31.6309660100000016 21.6457669499999987
  0.4051138000000000  8.7475530599999995 20.1242980899999999
 29.0779545800000001 13.1826357699999992 10.5594612699999999
 22.8655769800000002  1.7523516200000000  1.7736950000000000
 10.4918081399999998 35.8193454999999972 15.7397598599999995
 38.1439117899999971 34.7254417300000000 30.4991559000000017
 49.3132695799999965  8.1218063899999997  3.1999448799999999
 31.4735895399999990 26.6194023800000004 42.2957696499999969
 15.0004241700000005 12.1290006300000002  2.1135306699999998
 22.1099608399999994  2.1119184099999999 45.0127225600000003
 28.8280303300000007 12.7056866900000003 44.4762717699999968
 12.6995945399999997 42.0854480200000012 30.1248751299999995
  8.7762348400000008  2.1789470199999998 21.5626189100000012
  2.9360538799999998 46.2576080300000001  1.6182090400000000
 47.2393288000000027  1.3991943800000000 16.2599444700000006
 30.8867037400000015 12.8298256100000003 30.8790950700000018
 34.9508651000000015 19.1897298099999993 21.7888593499999992
  5.3591666099999999 21.5131632199999991 21.7341587700000005
 36.0065266200000025 11.6928888799999999 22.3833592900000014
 47.1196637199999984 40.1882137400000019 43.3082593800000026
 31.9154107399999987  2.3082959199999999 45.5296007199999977
 15.9992960400000008  0.1684706200000000 31.4856989899999995
 30.1429610100000005 12.7457644600000002 18.0633076800000012
 40.0121501400000028 34.2073485199999965 22.9065448899999993
 40.2998836900000015 20.1451756599999996 29.9673505499999990
 11.2606935299999993  8.4760839400000005  7.5427658900000001
 21.2662981699999989 22.6733251799999991 20.5763224600000001
 26.2515989300000001 10.6231399900000003 43.1137468399999975
 12.7431414600000004 23.9785435999999983  7.3822079000000000
 22.7682222299999992 15.5109398800000005 42.3666265499999994
  5.8924674799999996 34.7009067799999968 18.1402818199999984
 33.7164671800000022 22.6638656000000012 11.5891094100000007
 28.1619221999999993 17.4264734200000007 36.7388143100000022
 19.2521794300000018 21.3797188700000014 28.9350419700000003
 11.2503441300000002 34.5338531900000021 10.4706157999999991
 29.6397152300000002  4.6938067300000004 38.8097513900000024
 25.4915791700000014 36.9710806000000005 22.9516409199999991
 48.2289618800000000 34.1623243100000025 16.1846841499999989
 15.9865561199999995 36.0487906400000000 22.0243371400000001
 13.0343576500000005 18.4490037899999990 22.4067574900000004
 40.3731964899999980  2.3134904500000002 32.8339237599999976
 39.7567012800000015 40.8783545399999966 42.5048248599999994
 28.5913793699999985 35.3131322600000033  7.8138727000000001
 27.7585237599999992 37.5089168000000015 12.3646992099999995
 13.4995946999999994 37.6880495099999990 23.0480358999999986
 18.3394439399999989 31.0342508700000010 42.6544486299999974
 43.3180874199999977 47.0952384599999974 29.6728409299999996
 11.4374541000000001 29.2911129899999985 45.7360350299999965
 35.5407058199999994 32.6427066600000018 25.9708646099999996
 42.3215125899999975 47.6620740700000027  6.4789146200000003
 41.1180437000000012 20.9605255300000017 33.5525185300000004
 17.1788645299999985 25.1761384700000015 35.3591953800000027
 31.9967545700000002 19.4540881399999996 14.8593850500000002
 41.6845404299999984 42.0709589900000012 36.6077869399999969
 17.0750496299999988 30.3591146700000003 45.6403273800000022
 26.9823361099999985 42.1229688199999970 10.7369261100000006
  5.5172068999999997 27.6964084799999988 43.5373904200000013
 32.9207106400000029 48.3837498099999976 35.6830761200000026
 25.4604086599999988 13.0884011600000001 26.7582454399999996
 25.8310724200000017 42.8341126700000032 12.9317027600000003
 43.1282484600000018  6.4719329400000003 23.7768980799999987
 18.3260056300000009  5.1765822799999999  2.8184296600000001
 19.3472559400000002 19.3306190099999995 39.7136199700000034
 16.8108455899999996 39.8818564299999991 44.3610547999999980
 26.2480496599999995  0.9705534900000000 12.0925196300000000
 38.9773709199999985 42.6730230599999985  5.4986523500000004
 15.8500295199999996 41.4461530700000012 35.4946562299999968
  8.6871808200000000  5.4480457900000001 15.3056541100000008
 42.1285652299999995  4.7957971500000003  2.9626690999999998
 43.5796128300000021 42.5528728099999967 36.1333775700000004
 43.6768780700000008 27.2896650600000008  7.4006754900000002
 33.1530267300000006  2.9202414900000000 30.4987610499999988
 42.6768997699999986 20.6543503900000012 37.6669896000000008
 19.0942250499999986 16.6404387299999996 25.8537227399999985
 23.5181050999999997 18.7923321399999992 42.7262015100000028
 49.2688478199999977 11.5253108799999993  5.9000275400000000
 11.7627943500000001 47.2845649300000019 11.6828357599999997
  3.4206559900000002 40.9652197200000003  2.4478773800000000
 41.4751772299999999 23.3036431600000000 14.3305774100000001
  4.0146078000000003 23.5132975799999997 37.9925045800000021
 40.0245220600000025 42.1422401900000025 34.6308265999999989
 40.3026224299999996 16.1751838200000009  6.3145357700000000
 28.4026513899999991 13.3619785100000001 24.7728818199999985
  7.8247682000000003 10.8791290600000004 45.5221117899999967
 40.1328863800000022 13.4213263699999992 22.2322957000000017
  8.1938219300000004 13.5651688600000000 39.7930641100000031
  2.0285731000000000 44.2280213100000026 40.3541384500000007
 32.0048497200000028  5.5092566200000004 44.0760234800000035
 35.7266433200000009  7.6943426199999996 18.8164075699999991
 47.3620144200000013 13.3763105400000004 15.6513096100000002
  1.5606809399999999 30.3645833500000002 37.5524253299999984
 43.6125106400000035 45.4662950700000010  2.0212219100000000
 20.6766516799999991 12.4847269399999998 30.8057517199999999
  2.2691404899999998 37.4442543999999984 25.5837156099999987
 35.5082418200000021 37.0203300100000021  0.6864544500000000
 37.2398958699999980 40.9299120700000003  9.0322115699999994
  4.3799131899999999 13.2009780299999999 18.8377984900000008
  6.8791998599999999 18.7120173200000011 42.8751200900000029
  2.1433022600000000 22.4810530799999988 39.0590636000000018
 15.6819398099999994 16.3624241300000008  3.2623963200000001
 31.0949719000000009 13.1926515000000002 28.8937071199999984
 16.5356330900000010 14.3853157100000004 24.0011836999999986
 37.8944115199999985 41.3744018599999990 29.5720707500000017
 17.7931457100000010 49.4000190900000007 16.1207887899999989
 42.0971679700000010 27.1020671899999996  4.4433372999999996
 29.1700805000000010 11.5429210500000003  1.8741383199999999
 48.6427879399999981 39.3369417099999978 35.9793573999999978
  5.0598525700000003 40.9421415999999994 14.5737995199999997
 41.8485807200000011 49.0961895299999966  9.6574644599999999
 13.0051844299999999 28.1347960599999993 11.5173762699999997
 22.5429998599999983 30.1986182700000008 48.1772887699999970
 15.6924327399999992 42.7171331999999992 46.8577415399999992
 38.0621214600000002 10.0753353499999996 36.1612105000000028
 11.4648384799999992 39.5403232099999968  4.2122642800000003
 45.5256902400000030  0.2757949100000000 35.2849807500000026
 34.6715017599999982 23.9301074599999986 43.3161482900000010
 14.5042802700000006 23.4385657499999986 31.9745034399999994
 45.4792507700000002 19.7676413999999987 34.7490390700000020
 27.0996354900000007 13.5736457099999992 32.2635074800000012
  2.7701524800000001  7.9527274700000001 11.4906597200000000
 23.5179771100000004 16.6412545399999985 39.5651303599999977
 21.1460425200000017  1.5365517200000001 24.8248247999999982
 30.8304320700000005 17.0717983800000006 25.7154045000000018
 48.8035118000000026 40.6227703899999995 46.9018792999999974
 29.8853143500000016 32.4782641799999965 12.1859989399999993
 10.0842158099999999 35.4151594200000019 22.5842909499999998
 24.1780419199999983 10.3506301999999994 13.0418446200000009
 44.2825427000000005  6.6951915399999997 26.0842465700000012
 47.9320754499999993 44.3921222299999982 48.3983622599999990
 31.2745434799999984 31.2523412200000017  8.0988813000000004
 17.8980032800000011 11.7410662899999991 32.1010881500000025
 22.9885133300000000 17.9435763100000010 27.6870858300000009
 36.8515212499999976 13.5176374199999998 40.9320747000000011
 45.3794356900000011 42.1756076799999988 45.4383162100000035
 31.7804773699999998 34.4831894499999976  8.9651622399999997
 27.4817433999999992 35.6613821099999981 10.8490394699999992
 39.8063919900000016 26.0302182199999983 39.8775821300000004
 22.5228113699999994 40.8906835299999969 49.7181252800000024
 12.5315942899999992 18.5051646199999986 16.3017175200000004
 32.9664195800000002 16.6138952199999999 29.7369788100000001
 39.4028153699999990 43.1179014000000009 32.5688340399999987
 34.3936886999999984  4.7260336599999997 30.4477234500000016
 34.8880456500000022 13.3831678299999997 30.9016406900000007
 13.8750983899999998 48.7786951900000005 23.5301168499999989
 20.6739184999999992 16.5482438899999984 26.3351348099999996
 14.6107828499999997 13.4274363099999992 24.9220867499999983
 15.5120484100000002 10.9976898900000002 38.1740316899999996
 40.9506581699999970  7.7118321800000000 12.7634887199999998
 15.9548789299999996  3.6502388099999998 49.5636630799999978
 16.4853877699999991 19.9122462499999990 15.1227479200000001
 18.0242452399999991 33.4897297600000030 11.8880602799999995
  2.6291584399999999 38.2658598200000029 34.3059803100000025
 30.6109916800000015 28.9371559500000011 46.7801039799999998
 33.2075761299999996 19.7320506999999985 36.5761147099999988
 34.7598486300000005  8.7758843399999993 46.2880388800000020
 13.0694835499999993  8.8100376800000006 20.3033092500000016
 37.7186088999999996 36.6597796499999973 40.9165697399999999
 34.7875576899999999 24.4820305299999994 19.4870509500000004
 18.8653684499999983 20.2476095500000000  1.5737110299999999
 49.3612653300000019 14.7864685900000001 16.1776398400000012
 47.5927638300000027 41.5817654900000022 14.7325656699999996
 10.2311790699999996  5.4266893300000003  6.3676199899999997
 20.5891810500000005 42.3658291100000000 42.4898101200000013
 26.2387116099999993 44.0260228200000014 45.3655482699999979
  8.7697972600000007 43.9825225599999996 14.2566548999999991
 11.5988364300000004 41.6438191200000034  7.6678807700000000
 24.0720174900000004 28.3978755999999990 33.0951267100000024
 29.7945749199999987  7.4206020500000003 18.0586287600000013
 11.3735744499999996  5.6658647999999996 26.1896614099999994
 19.6393300599999989 28.2203819299999985 49.9590445299999999
 11.6614319900000005 43.6874627600000025  5.1865601899999998
 20.5171743299999996 32.1489148200000017 26.8114208599999984
 19.5503964900000007 33.5137711100000004 15.9509829599999993
 38.1705290800000014 32.0822738700000016  6.7769769100000001
  0.6510021200000000 41.3925771299999994 35.0438719500000033
 32.3559404499999985  6.2911456499999998 35.2849061300000031
 33.4173260900000031 44.9995575200000033  7.5632665299999999
 15.8206395400000002 47.4887704499999970 43.7648943599999996
  6.5795024000000000 31.6967632500000001 27.5000037500000012
 42.5630609700000022  7.3657279600000001 45.7898835900000023
 40.5734379700000005 17.7720154500000014 44.2636438400000003
 39.0619951500000013 14.9524561699999996  5.9307900299999998
 28.7880090399999986 40.0679893699999994 22.6974179400000011
 25.5032762999999996 33.5647805799999972 23.2671243700000012
  0.5593078000000000  0.2861622000000000  9.5281354000000000
 39.3716059599999966 18.5813288099999987 46.3932391900000027
 31.1711298399999990 43.1792998199999971 14.4920562700000009
 17.9897202699999994  3.2286253999999999 13.5071072799999996
 13.9520387199999991 41.9148178299999969 12.3432147400000005
  2.4100916699999999  6.4107047699999997 44.7149964500000010
 24.9453192000000001  5.9797850500000003  2.2472770400000002
 19.9852607499999984 42.2774905500000031  7.7837339400000003
 21.2163393700000000 33.0158207300000015 46.8989311699999973
 30.3361792500000007 10.1646403799999998 37.1109160800000026
 23.1665018600000003  9.3967410999999998 31.0276885000000000
 32.3605572000000024 33.8849010300000018  3.5316727399999999
  6.8236965300000003 35.8674993699999973 25.0618657399999982
 14.7775707599999997 16.6317673500000005 30.1138136199999984
 22.8655289000000010  0.9442790000000000 20.4970692099999994
 44.2422915000000003 30.1932243999999983  7.5224970500000001
 30.6079234100000015 27.3688175800000018 37.7171392500000024
 11.9593669499999997  1.0803005000000001  6.6104440499999999
  1.7331735200000000 29.4474162799999988 22.7253576799999983
 45.0866058200000026 20.5840387699999994  5.9396246899999996
 27.2722345399999995 14.4459779699999995 43.5516987700000016
 23.4011675600000011  3.4231354700000001 32.6378968000000000
 45.1315138900000008 25.3540030099999996 24.7285893500000000
 13.4012641200000004 35.0460896700000006 19.6290240500000017
  5.0071774800000002  5.6318599799999998  4.6706115199999996
 48.9677329800000010  0.6881540600000000 15.8053610300000003
 40.7028558200000035 42.8976912299999995 31.4964205899999996
 10.3408087099999992 47.9719773899999993 15.0239211099999999
  7.0421149999999999  6.8267831399999999 37.7441966800000017
 16.7136833100000004  6.8754744299999997  6.0987153400000000
  1.1086383099999999 32.8841453300000026 33.8306259100000020
 41.3295950199999993 26.5035591900000007 45.3193233800000002
 31.8680347099999999  6.0593572499999997 39.6172560899999979
 47.2231650000000016 29.7341778300000001 42.3268129499999972
 36.7453308500000020 28.7755648000000015 30.9176625600000001
 33.1546375900000001 29.9940006699999984  9.1692847000000004
  8.1679690399999991 29.0557131800000015 39.3713695200000018
 14.6074898100000006  8.0813094999999997 22.5687853199999999
 13.5748156899999994  1.9272602400000001 41.4628621800000019
 16.3247424999999993 19.9471173899999989  1.2019751800000000
  1.5969038700000000 39.1633692600000032 18.7471741700000010
 33.7562162099999981 40.7258761300000032 29.8001253400000010
  0.7066191200000000 26.1475118199999983 11.2312120400000008
 12.9808197599999993 18.6376338900000000 42.7128084200000018
 24.1711196800000003 44.0085206199999988  1.2059812000000001
 18.9259846600000010 39.0240967000000012 27.9932197100000018