Na Cl 
 1.0000000000000000
    50.0000000000000000    0.0000000000000000    0.0000000000000000
     0.0000000000000000   50.0000000000000000    0.0000000000000000
     0.0000000000000000    0.0000000000000000   50.0000000000000000
 Na  Cl 
 400 400
Cartesian
  8.8883523400000009 36.5377867999999992 40.5827431200000035
 24.1636131300000017 17.8458828800000013 35.7535557300000022
 10.0111362800000006  7.1674643099999997 13.5726880600000008
 16.1681877800000002 38.7319466499999976 17.8273672800000007
 24.5618525500000011 11.0558771100000008 16.1266115100000000
 39.9596544600000030  1.9125669700000001 44.5131284400000027
 32.1496776899999972 39.6329702999999967 11.3318220299999997
  3.9328571200000000 49.5296065499999969 44.0972195700000000
 41.9692758699999970 27.6194902999999989  0.7734116400000000
 48.7294389600000031 45.6806470200000021  4.6343882100000000
 40.1626859699999983 14.2631747099999995 21.1773977000000002
 28.5231692199999998 38.9049978600000017 26.2991040799999993
  9.0423308599999999 24.4547435700000015 10.8751171800000002
 28.0944187599999999 32.8960283300000000 33.5482211699999979
 44.9532158199999969 28.6982592600000004 31.6433185200000011
 29.2542990200000013 27.0036299399999997  0.0083562700000000
 40.4438050400000009 39.0313397099999975 49.7265237599999992
  3.6848597000000001 31.4369995099999997 11.6506982600000004
 13.2857381399999994 43.4009661400000013 40.0379177100000021
 17.2830133500000009 25.6054516499999991  0.8259408400000000
 31.5877190900000002 44.7948097700000005 16.3677922500000008
 43.4843898299999978 42.1397969100000012 43.5666497300000017
 24.6820140499999994 30.6101586999999995 14.9373466199999996
  1.9846734800000001  6.4072336600000002 36.3760660299999969
 22.5418318199999987 10.5673449399999999  5.3663998599999996
 43.0825048299999978 37.6587230199999965 30.1577787300000004
 11.7870953899999993  5.7122537400000004  5.8486538499999998
 48.3252582100000012  2.6147900399999999 46.7761925900000008
 17.4688135799999991 48.3498739500000028 16.3315391900000009
 34.1792378299999982  0.4501552100000000 15.7585981400000001
  4.7588975400000004 32.7909947099999997 18.2480237500000015
 44.5352195299999991  3.4345919500000002 25.1869291400000002
 16.7180849500000015 30.8538385300000009 10.4642492100000002
 22.6364207600000000  0.3236451400000000 39.5039025600000002
 42.0904019800000029 13.3860958100000005 30.1122853200000016
 47.1793849900000026 43.9235931199999996 23.8296251199999993
  4.5093187400000003 38.1200376600000013 33.4729682600000018
 30.1775074699999983 43.3680557599999972 36.9131834900000015
 49.8748891500000013 47.2619787799999997 32.0773170200000024
 23.4672327400000000 13.7806651500000008 11.6391415499999997
 19.0520798199999994  8.3054972599999992 40.4924797099999978
  7.1064569799999999 38.2224420499999979  4.5835282399999997
 35.3592004099999997 32.0812793600000035 40.0622000899999975
 25.3968647599999997 45.1059652000000000 45.9571230399999990
  1.3669992799999999 25.1569047499999989 12.0980568500000008
 32.0415104200000016 21.6656122700000004 33.9454057100000028
 20.4337444499999989 29.9429449199999986  1.0752021800000000
 20.9230489000000013  3.6827986600000000 46.7970978500000001
 18.8234871999999989 16.3494368200000011 34.9845663600000023
 35.6067695799999981 42.9763659099999984  3.7818555300000001
 11.6458458199999999 31.7306659599999996 47.3027308699999978
 16.9977182599999992 30.6507984600000007 47.9696362700000023
 25.6768496599999985  0.8122252300000000  1.0694476100000001
 24.2059515400000009 29.4275936300000005 39.5662099500000011
 39.2906970100000024  8.7445828399999996 20.2038017699999983
 15.2962833899999993 34.6350147599999971 10.6929875499999998
 17.0417434599999993 20.5823579000000016 27.6891709000000006
 21.8952635600000001 43.6947166699999983 27.1030012900000017
 20.1426427200000013 37.3962062800000012 18.0389781800000009
 31.1062701699999984  3.0826748799999999 10.5167565500000002
  5.1272528499999996 23.7386545700000013 25.5674295499999999
 11.7884120299999999 27.8409215100000011 22.3677392499999996
 34.5934985600000005 12.9302969999999995 19.5016136300000014
 13.6201969399999996 14.6499895999999996 22.3752485199999995
 10.8019205599999992 47.8787830999999997 48.7075968400000008
 28.5801010799999986 45.7588601100000005 19.1619346200000003
  4.6352261700000001  4.2462374599999997 16.5129383400000016
 32.9546876599999976 19.4355654599999994  3.5487210600000001
 43.3549014800000023 15.8292088300000007 41.5127481099999969
  4.7574201599999997  7.9606642799999996 44.8844713399999975
 23.3097574499999993 17.0935450200000005 41.2111534200000023
 35.8555811399999982 24.7522056500000005 10.3202769300000003
  2.8944432299999998 46.9073384799999999 21.6377543599999989
 15.7375605899999993  1.1807524100000000 44.9058203700000007
 32.1229609800000020 40.6052083200000027  1.7362324499999999
 30.8588359399999987 44.4556701400000023 16.4481049900000009
 43.3006439099999980  3.9221852300000002 20.1672237699999997
  0.5298909300000000  5.8768067500000001 21.4911082600000007
  1.0565707700000000  7.7849276900000000 41.2796282899999980
 36.7126151399999969 28.9226442500000012  2.8818716100000001
 35.6161083499999975 49.9330274499999973 24.3923984999999988
 13.0416688799999996 41.3288709400000016 14.3339463100000000
 10.6356501600000009  3.3722875399999999 28.0367228799999992
 13.2014420399999999 26.6363841400000005 27.7081951199999992
 41.6353185600000018 14.7990752099999998 28.0570216099999996
  4.3622696999999997 16.6668905299999999 20.4290632499999987
  1.2660200200000000 27.9985565600000008 21.7400866700000002
 35.6365986100000001 44.3128407900000028 15.9151681800000002
 36.2315558299999978 43.7588325199999986  4.6981752900000000
 12.2320519599999997 34.0972654700000035 22.7407210800000001
  3.2992675700000000  0.7900204000000000 27.8729426599999996
 10.5472387300000001 17.4413845700000003 37.3505062400000014
 49.9583164200000027 49.4241210200000012 21.2019221000000009
 40.7047760399999987 25.1708988200000015 47.2964971500000004
 12.2276782599999994 10.5884835200000005 10.6424757999999997
 18.0908168300000014  2.3584360000000002 38.2339107299999981
 47.3376114599999980  3.2358208199999998 34.4405563899999976
 42.4313163300000014 43.1336415900000034 47.1142024700000022
 48.4009463800000006 24.7058057300000016 30.4769734999999997
 26.4936043099999985 28.0075926700000011 23.6099995100000015
 13.2617379399999997 40.0295031899999998 25.8601295200000010
 31.1968152299999986 24.8736104800000000  0.7713557700000000
 14.1764100000000006 12.9228843399999995 44.9171632500000015
 22.7627505399999990 23.5483618600000000 27.3177185000000016
 28.8948130700000014 35.1232600800000014 16.6321557300000009
 36.6413968999999966 31.9577297099999988 13.5632557600000005
  7.6395999699999999 48.7566551199999978  3.1025813400000000
 45.0846507400000007 37.7250274399999981 44.5361056099999999
 18.3269987000000008 21.8670973699999998 20.3054237700000009
 23.2573690699999993 36.6019589499999967 19.1241251599999984
 19.1716088800000009 17.2303954499999996 41.2562481800000000
 43.7631368099999989 27.0404368999999996 18.6229745000000015
 46.3324430400000011  9.3701422999999995 33.9815632099999974
 28.1329254800000008 30.0784596399999984 28.6711393500000007
 25.8390947100000012 27.6648456799999991 13.0613861900000003
 22.7176939500000010 16.2821771400000017  4.5512255799999997
 42.4482693900000001 28.0635714000000007 14.4444578400000001
 18.0029076400000001 24.8686636000000014 17.6290958999999994
 42.2147392999999980  3.1233437400000001 44.0381942799999990
 49.9311879700000034 43.4762833400000019  5.8940563399999997
 11.4048700099999998 31.6503157100000010 46.8560627399999987
  9.8464950000000009 40.0415216099999967 27.8536329599999988
 36.0092280599999981  7.0960048599999999 12.5537142399999997
 40.2753137699999968  7.1985412400000000 35.8826585999999992
 29.8430558899999987 22.2403410199999989 43.4115688999999989
 18.2384759699999996 34.0656921400000030 42.0878409099999971
 20.3422388400000003 42.0081661299999993 31.2481106400000002
 36.9955339400000014 33.9389437999999970 11.8283921900000006
 49.7875504200000023 29.3599000299999986  1.8398669800000000
 22.6443155999999988 33.0123008799999980 37.7409712099999979
 12.5031626800000009 40.6552325700000026 42.4937331100000009
 42.1723507499999997 40.6991243299999965 30.1826464399999992
 29.7386929500000008 18.2124632499999990 46.8698352099999980
 41.3203661800000006 21.3943121100000013 24.2036715999999998
 41.1085157799999976 10.8247927900000001 32.2924317900000020
 38.9011658399999973 11.8943461700000004  8.2761431200000004
 47.1373362000000000 37.2094927300000009 29.9443065299999986
 23.9598972100000012 43.9924689200000003 31.4251630499999983
 12.7153486099999995  6.8640422599999997 13.9582194699999995
 45.7946083300000026 19.9821283899999997 39.6318524599999975
 42.5442312999999999 40.8955300399999970 31.1734112600000017
 31.5230307299999986  7.5775060800000000  5.1447504000000004
 17.8199579600000000  0.0333607200000000 10.6936159400000008
 27.6030374599999995 24.2505676900000005 29.2912069799999983
 47.3157876599999980 36.4432425199999983  1.5769917300000000
  4.4999933600000004 31.3883842299999998 44.5738344000000026
  2.4346975199999998 19.9611435700000008 36.9400436499999998
  1.3135641800000000 27.0732058600000016 19.3708403800000006
 15.7143081599999999 10.3772645400000005 10.6851218800000005
 34.8434097499999993 13.1877164199999992 45.9498457099999982
 29.0568918099999998  9.1806927500000004 49.9030589799999973
 20.7123173499999993 11.9176967600000001  0.7294296300000001
  9.5237752699999998 16.0909626699999997 40.8096079000000032
 37.0799304399999983  2.3908910099999998 33.7052384500000031
 33.9427104600000007 25.1347191700000003 39.2251722700000016
  7.4703373300000004  3.9594759700000002 46.9126570299999983
 11.0266308599999991 24.5848377599999992 47.3682029900000003
 17.3875840500000010 33.1250640700000005 32.9518545999999972
 21.8203262100000011 34.2225474500000004 28.3549330099999999
 11.3590931600000005 12.2786943399999995 18.0157593799999987
 40.8678461499999983 15.8902803299999995 17.9414678000000016
 42.2492858199999972 33.7468089899999981 32.6187383099999977
 23.1347253200000011 25.3284333900000007 44.9799140900000012
 27.4160970100000014 32.3424976200000032 30.3575612700000015
 19.5323421699999997 30.0748693200000012 18.3286584099999992
 49.7618426800000009 47.2899236499999986  1.7467366099999999
  7.4021605099999999  8.1117096199999992 33.5035194599999997
 43.6515071199999980  0.8801102400000000 42.0128196699999990
  9.4601492000000000 46.7275638599999965  0.1657676400000000
 36.0567559899999992  5.8979051900000004 26.0925511700000001
 37.5075448199999997 39.3058674600000018 13.7143884800000002
 47.7272662800000020  2.1643498499999998 26.2278564600000017
 11.5835724199999994 35.1016958900000020  4.2027782900000004
 36.0947220500000014 43.9935304700000032 49.2665457299999971
 22.8340891799999994 22.5367841599999998 25.7314587599999989
 18.6273749799999990 20.2912412199999999 34.8912058100000024
 16.4960401700000006 48.9470954700000007  3.8336427700000000
 32.0339804899999976 45.1100908000000018 15.2960154500000005
 30.1317218800000006 23.8496899700000000 41.7393524399999976
 13.2964491400000000 23.4207639299999997 32.7794503800000001
 24.2225468500000005  8.3449152600000005  2.9907243299999999
 15.1038819300000000  0.9435905100000000  8.9257822600000001
 15.6225218300000002 17.7243590399999995 43.3024482300000031
 34.2474095199999979 46.2118315000000024 32.2520661300000029
 10.4754771400000006 11.3442710699999996 13.1637955400000006
 43.9116047699999967 22.3413138099999991 40.4611305500000000
 30.2211909699999985 27.5566254400000012 44.2037786599999976
 32.9078763400000014 32.6776647900000015 13.5120576499999991
 47.1529963600000031  0.4098996100000000 39.1826718100000022
 43.1650500699999995 24.9965479200000011 16.9809724300000013
 49.2036029699999986 14.9551046200000002  0.4432651900000000
 49.9580733000000023 45.3379736300000005 45.3227325599999986
 39.1660580100000004 13.9370215900000005 39.5218442600000017
 43.6364963600000024 48.5943579300000010 25.3737988500000000
  7.4373295300000004 49.1974652999999975 11.7992532699999995
 10.0497547800000007  6.2286155599999997 34.3416500100000022
 30.1116595899999986 36.6627013000000019 40.0207757399999977
 29.1779255400000004 43.3945465999999982 32.1447650599999974
  7.0663398900000001 13.9744692500000003 18.9047639600000004
 32.3678405400000031  6.2959686599999998 16.3453517800000014
 16.3273507100000010 13.7833942500000006  7.5071438700000002
 22.5670504700000016 34.4172856899999999  1.3206434700000000
 46.0547584799999967 42.3257550900000012 18.9657764799999988
  7.8053505699999999 34.5269659900000008 44.7174405000000021
 16.0224095800000015 38.6377438600000005 34.5610837799999970
 18.1351675700000001 47.7614101899999994 26.0211362400000006
 37.2367719100000016 38.4255399400000002 18.0497849200000005
 12.7351694799999997 39.9934497799999988 19.9105333400000006
 36.3338399100000018 12.8474500099999993 27.0923014400000000
 40.3102864700000012 44.9846996400000023  7.8469112599999997
 33.0374661299999985 10.6932274100000004 21.0731062700000003
 25.6970304399999989 39.9906335599999991 22.5782173300000011
 22.0987076699999996 12.9798788900000002  2.8244547999999998
 20.6118651499999999 23.6176246200000008 41.4169692899999973
 45.0027899099999971 11.8900087499999998 35.3770353299999982
 31.8327872700000007 13.6556409799999994 10.3579989700000006
 36.8886596899999972 37.7034566100000035 31.9952024100000010
 43.3668428100000014 16.5270568400000002 20.2443338299999986
 46.5187251600000025 40.2136828200000025 21.3672215200000011
 18.8921177399999998 19.8228260600000006 12.2375812199999991
 27.0275740499999984  2.4371330400000000 10.8950113900000005
 12.4564794400000007  6.0499747499999996 31.9256984800000012
 25.2143153799999986 26.9986006600000010 15.4812203600000000
 42.8705223999999987 24.8700366899999992 40.7067109299999998
  7.6906370500000003  6.5369002299999996 15.6821969499999998
 20.6841452399999994 38.4290089799999990 26.3538879900000005
 29.7954996299999983 22.9622061200000012 25.7983234599999989
 42.4223893500000031 43.0978383799999989 45.3697145000000006
 28.7915403900000015 49.4192606499999982 39.5138016399999970
  8.4641423299999996  6.8402220500000004 13.6120395599999995
 27.5488268699999992 13.1332247599999992 30.1085062900000011
 33.6652679099999972 12.1576960700000001 34.3978835400000023
 25.2287071800000007 18.8815429399999992 42.0922412700000024
 44.2990804299999965 34.6447826100000000 24.8612570499999990
 43.1471709599999969 24.5023175699999989 10.4514367499999992
  7.2973924500000003 47.2748905899999983 49.0861012100000025
 40.1030876399999983 12.5939568099999999 16.6321017600000012
 35.7343206999999978 36.7280839200000031 38.9064133600000019
  0.0893100400000000  1.0338390500000001 25.7328859200000011
 42.6136314800000022  7.3043424000000003 14.0826691499999992
 37.4203591500000030 23.9763162899999998 19.9479010999999993
 14.3737546500000004 29.6943488199999983 22.9206235000000014
 26.9192013299999999 31.0167808899999997 49.0364663100000016
  5.8892143199999998 30.0251085000000018 31.9985348400000014
 49.3750804599999995 46.9772351900000018 46.3918242599999999
  7.3903155299999996  9.0331373999999993 19.9403005499999999
 36.6313642799999997 13.3393866499999998 45.0714900600000021
 16.5334402000000011 27.5293776000000001 36.2492598999999984
 41.3111306699999972 16.1731479500000006 22.0976493699999992
 45.1928894699999972  6.8933418299999998  6.3961125000000001
 49.4628021999999987 21.3165026500000003 16.4600220600000000
 43.5907380900000021 29.5350086999999988 44.8912424000000030
 37.1110362599999988 25.1864877599999986  9.2998608500000000
  2.7613470300000000  9.9596066400000005 41.1088771100000017
 16.8976640200000006 49.0391414799999978  0.8509230800000001
  1.4642121699999999  9.0140130900000006 48.5179674800000029
 41.4794443600000022 45.0213605000000001 24.0060061299999994
 18.9450742100000014  9.8621912999999992  3.8492547400000001
 44.4243581500000033 40.1873832500000034 29.3503211200000003
 40.8471468099999981 17.9964271899999986 15.9518218399999991
  2.2697333000000000 47.4076137899999992 29.7649112699999989
  8.8636622099999993 21.5707751600000002 40.0180420100000021
 33.2320508500000003 31.0785839199999998 37.7600207899999987
 32.6693634900000021 23.9921554999999991 36.1575469499999969
 49.8916609699999967 29.1458856699999984  4.9004270700000001
 11.4777956900000007  7.3121784099999996 45.7824631299999965
 15.8578959099999999 23.6566176500000012 46.7728693299999989
 11.6147554100000008  9.1941220300000008 25.6088960099999987
  8.7152463400000002 27.1452776500000006 30.6814897699999989
 13.7985904300000009 12.9093564199999999 17.5533098900000013
 18.4794034200000006 33.3332739499999988 32.3352103699999986
  7.8807521400000002  1.8012427300000000 23.4865087000000017
 37.7516553700000017 42.0717702900000035  0.2432787800000000
 38.7864420599999988 33.7317089699999997 28.8326710099999985
 40.7017174599999976 23.7653489299999983 24.2195257999999995
  7.5701707300000001 31.8594773199999999 12.2353433200000001
 39.4152173499999989  1.5579852000000001 35.0573403900000002
  8.7199751299999999  6.6220574799999996 46.9200836199999998
 35.8454809899999987  4.9990390500000004 18.8492304699999984
 49.0165651800000006 21.4109320499999995  3.5350081499999999
 12.8820229400000006  8.1595218299999992 37.0834182199999987
 11.0100054499999995 45.1615413600000011 30.0256851500000010
 41.6903192099999984 39.1950275499999989  0.8279754100000000
 15.7826916599999993  9.6987648899999996  7.1415267900000003
 27.6407897600000005  8.7534981599999995 20.0435544199999995
 22.0191783799999996 26.3310997600000007 46.7937279499999974
 12.1856181499999998  3.6842023500000001 20.3889053400000009
 26.3320659600000013 13.0326615199999996 39.9422363999999988
  9.1672248199999995 23.5476333099999984 15.0729724699999998
 31.4483736799999996  2.8164198400000000 35.5682548999999995
 45.6601036899999997  9.3627600999999991  9.9089573899999994
 39.8468236399999967  5.5649034500000001 29.3322371199999985
 36.9093139800000003 34.8401085200000011  7.7038455099999998
 28.5314729599999986 28.4659884500000011 27.8679412500000012
 26.4885110200000007 42.4047223000000031 46.1677365899999970
 41.1488992100000033 39.5490574800000019  1.0091245600000001
 10.3565551599999992 12.6226104899999996 48.2144293099999999
 39.9134705999999966 25.7003075599999988 45.0690985399999988
 26.3391642700000013 32.3339213300000026 36.2157967600000035
 28.8961048100000006  6.8336084100000001  2.4564648800000000
 35.8051659200000003 27.4236853600000003  9.8798371199999995
  0.4224740900000000  0.5220340999999999 23.8271740600000008
 13.3144414999999992 25.8183672900000012 29.2990624799999999
 29.3431151999999997 19.7372130699999992 23.3400269499999986
 25.8329825799999995 24.9382706899999995 37.5155554299999991
 23.9401586000000002 12.2455895199999993 11.6231246699999993
 49.8562827700000000 34.5445249200000006 39.8302593499999986
 27.1688180199999998 26.3244130799999994 34.4105872499999990
 38.7398869399999981  1.2798766600000000 10.8870439700000006
 28.5480840499999999  7.6486239899999999  0.4234736800000000
 17.3221183600000010 32.8432021799999987 45.6990653599999987
 14.1915541699999999 17.4508914399999995 47.1324870799999971
  5.7103790800000001 24.3412564899999992  3.4977514500000000
 36.7086972700000018 13.0750951700000009  3.1244396700000001
 12.4575543300000007 24.1155829200000014 10.6020693500000007
 38.9795381799999987 29.0981195499999998  2.0953388700000000
 16.3603235299999987 17.9576445900000010 14.1326580699999997
 27.5842297000000016  8.1486004399999992  3.5276667900000001
 39.4957897000000031  5.7374401500000003 29.1566185299999994
 35.2876728999999969 29.9184816799999993 39.9215889600000011
 12.1456205399999995 31.4444759100000013 37.3065785900000009
 11.6663813399999992 26.8712023900000005 24.2985080599999996
 35.0249225700000011 13.8735829899999992 23.3093417100000018
 10.1061625500000005  4.2738991999999998 31.4239254099999989
 41.9144243900000006  5.7307153499999997 16.1328895099999983
 45.4739821800000001 31.2185343300000007 39.9064296600000006
  7.3632564399999998  4.2510374200000003 47.1859787100000005
  4.7441991999999997 35.7559535400000001  0.3110681900000000
 28.1230605099999984 14.2780008299999999 20.3599946000000003
 40.4291912600000032 43.4175672000000006 19.0518949999999982
  5.1992113000000000 33.1443656900000008  7.3540777700000000
 49.9850816300000034 49.2669993499999990 30.4581467900000007
 10.0731038300000009 48.6560750499999983 12.6533882099999992
 15.4955662899999993 33.9825673200000011 45.0089255099999974
 15.0110327500000000 40.4273884999999993 13.1185612500000008
 33.6588775399999989  4.7548654499999996 15.0236372399999993
  2.2711603000000000 21.3911310599999993 20.7397865900000014
 23.5932627799999999 31.9675479699999983 28.5787297299999992
 22.7105939600000006 46.9527424099999990 34.7416279099999983
  2.5402294900000002 43.6371213700000027  9.0989107499999999
 25.3930446100000005 30.9007797099999983 49.4045329499999966
 41.9853078900000014 47.0696443400000035 49.5124986399999969
  6.5646306599999997 31.7475734900000006 31.4676330799999988
 26.5091826300000015 39.8325151499999990 15.0820986200000000
 34.8315150199999977 13.2728966499999999 27.5739637100000010
 35.6080724300000000 14.8733731400000000 26.7824118800000015
 31.9965491899999996 16.0022679799999992  0.1179245100000000
 31.9571863100000009  4.4302741599999997  9.6177262999999993
 45.1259196199999977 31.3311332699999987 32.3569526100000004
 23.3025418699999989 45.8212141200000005 17.1456492099999984
 16.9263063299999992 30.4305056299999990 45.5080422799999980
  3.6665742500000000 24.1134793400000014 25.2472288599999999
 30.1753802399999991  7.6156357100000003 45.9893878800000024
 43.6420377999999971 41.7293260799999999 44.7833707500000031
 24.1122487599999999  4.5648741299999998 21.8395437000000001
  7.2109370100000003 44.2182603700000030 26.3020905300000010
  9.2355761500000000 22.3283315400000006 22.2682166899999991
 11.9179900100000005  5.6580856700000002 45.4458584300000012
  8.5426149900000006 25.7301866900000000 47.2476907499999967
 41.9384811299999996 10.0522995300000009 48.9981582799999984
 12.0462947800000002 12.0763910100000000 17.9036365699999998
  6.4197857699999998 47.3393712900000025 32.8132355300000000
 42.0495070500000026 26.0649557999999999 23.7122066899999986
 31.0578305400000012 38.9579175000000006 15.7194035200000002
 46.0149622500000035 23.4705420300000007 19.3999322499999991
  4.6612491900000004 41.6150571499999984 24.2655310399999991
 30.7802349000000000 23.4079754999999992 17.8442627300000005
  8.5236604800000002  7.1617391699999997 17.3502172399999992
  5.1011933999999997 35.7574214899999987 24.9829146400000006
 37.8464030299999976 34.4956884599999967 19.0358700799999987
 35.8684093899999965 40.3565478700000000 22.5000495399999991
  8.3326669899999999 47.1341250199999990 33.2392416400000030
  1.9341606700000000  7.4383063700000003 15.6152314099999998
 45.1943306000000007 31.1143894100000011 39.5428579700000000
 46.8139313799999996  1.7447793400000000 24.5063652400000009
 28.4805862599999990 23.2132692899999995 45.4170064699999969
 23.6278194100000007 12.7608454400000007 21.5292764699999992
 42.5496229399999990 31.5127551900000000 34.8765374999999977
 19.9657998100000000 15.1974751500000007 23.9647653299999988
 25.8108984300000017  3.7699693399999998 11.8746399199999999
 27.0731963799999988 19.2115737700000011 38.9203194500000009
 33.8089578700000004 27.1549372399999989 43.0301284199999969
  7.3682746400000001 38.5919057500000022 14.1599035400000002
 35.4988339800000006 28.9026265900000006 16.4450404299999988
 41.7945251800000008 40.5846362400000018  5.9813260399999999
 28.1466895100000016 11.4106735300000004 29.1899644699999996
 45.7328016199999965 31.1967455899999990 23.7031769600000004
 29.2951389599999992 13.4004757300000001 21.7956551900000015
 19.5768082600000000 27.4164351800000006 38.0260069799999982
  3.0993108399999998 40.1173202000000018  1.8006721299999999
 13.8964671200000005  7.9229541399999999 11.0902186100000009
 43.3041263799999996 12.4520790600000009 32.0927418500000030
 32.7121925900000008 43.8209028699999976 47.9144570400000021
 48.2794847099999984 33.2995185300000003 15.0079638499999994
 38.8484845400000012 26.4795825200000010 42.3434833999999967
 16.9254371500000005 15.8221960799999994 23.6495836500000003
 28.5524311100000006 30.7097376199999985 38.5602371700000006
 31.9061395400000016 46.4872405599999965 11.0521173200000007
  2.9357234700000001 40.7044077199999990 18.9806320600000014
  7.4829653199999999 16.1980880999999997 41.2666386699999990
 44.8172449099999994 43.4352194399999973 15.7331182500000004
 26.5183636299999996 44.1376027900000025 20.6900186899999987
 37.1441784000000013 32.2064059699999987 43.0651439100000033
 45.8736763799999991 48.8788887600000024  7.4834234999999998
 23.8988441300000005 17.8732821299999998 46.2528184499999995
 21.1196966999999987  8.7424928600000005 35.0774912600000022
 47.3955392399999980 26.8279390100000015 47.1708887200000007
  1.1267901600000001 37.9622801599999988 32.0426770400000009
 41.2730151700000008 25.5660407800000016 38.4474396700000014
 36.1184527300000013 42.8350908899999965 29.3725566600000008
 14.5598008100000005  6.5722680400000000 10.1090296700000000
  2.4616373700000000 22.7393016999999986 29.4437114300000005
 10.4579812200000006 17.2903599800000016 49.0801228699999967
 39.6250285400000024 27.8546595799999999  3.2636330500000001
  1.8806346899999999  7.8272915200000002  3.2886587999999999
 22.4885019799999988 14.2527968200000004 46.7561931600000023
 31.3383847600000003  4.2326965899999998 38.9315119199999984
 21.9208301600000013 23.3925205299999988  8.0925454699999992
 11.4116405000000007 45.4418115499999971 40.5267703100000034
 33.4285496899999970 33.6346226000000001 47.1019872000000035
 43.0988453300000032 12.2934553799999993 16.1046211700000015
 20.3679751899999992 24.5590729100000011 14.3383224100000000
 34.1847379200000034 42.8901417599999988  4.6125829200000004
 23.6812058500000013 10.0266887400000009 18.5576319800000000
 48.1206558200000032 13.8623169199999996 33.9605117600000028
 24.3211632199999990 15.7903092300000001 37.7272090599999999
 31.2026455899999995 22.8644494300000005 32.8015810999999999
 46.1734851300000031 37.7646450800000011 10.3899060599999995
 23.1510900299999989  0.3701369500000000 20.8917399699999997
 27.4737309600000010  0.9961768100000000 42.7435752700000009
 41.2695109300000027 16.6702641999999983 27.1303258999999990
 29.3873384500000014 12.9973273599999999 46.0808588599999993
 30.9949260299999985 31.7218691700000015 49.4551805099999982
 43.2187951100000021 28.2894781900000005 11.2599769900000002
 46.4332582400000007  3.7712605899999998 33.5767705599999999
 24.7828279699999996 24.9897544899999993  2.8036365800000000
 20.7199399500000006 40.0306657100000010 45.3986603700000018
 15.2849146499999993 43.5604703799999982 20.8257026600000010
 17.5846094800000010 44.5315524199999970 41.8015427200000005
  8.5284122999999994 37.0255329599999996 38.1324347799999970
 41.8312664999999981  8.0961277299999992 21.6187252500000007
 45.9153287099999972 48.9296183700000000 10.0959170000000000
 32.0769487999999967 17.2785312500000003  0.2746909400000000
 16.7306158300000014 41.4602613500000032 22.6125135899999989
 48.5158907699999986  6.5761853700000001 25.9475784300000001
  0.9506129400000000 26.9517352000000017 27.8135042500000012
 11.5659873500000003 39.5494264000000015  7.2095656100000003
 21.1692115899999997 40.9391194999999968 13.7814456700000001
 24.7573103900000007 46.1156759899999997 16.1662944700000004
  6.9111032000000003  4.9114453899999999 46.6626058800000010
  8.4169961600000001 14.4543792399999997 34.7519223999999980
 25.5597313100000001 32.4040493799999965 14.8580068999999995
 18.5220092899999997 49.4100598799999986 34.8764846300000002
 19.0771155800000010 29.0816314899999995 24.9804300800000014
 46.0884185299999984  8.0501611799999999 49.0590323699999971
 35.1570252300000021 34.1229733699999969  4.8134366999999996
 49.4306237899999985 30.4940382600000000 13.3010801000000001
  1.2532235800000000 12.9287553499999994 43.5912442400000018
 38.0418807699999988 19.8900646200000004 42.3159961599999974
  4.9473819600000004  0.6485660100000000  0.4489263500000000
 45.1052009799999993 33.1128771300000011 28.1259881199999988
 13.4823843700000001 48.4340506799999986 31.0898314400000011
 26.7969699199999987 26.6735052999999986  1.6036560099999999
  2.6465061599999999 29.8290288900000000 36.4885764100000003
 13.5037793399999995  8.0193255400000005 30.8042950600000012
 27.7870834900000006 17.5122743599999993 28.7950912199999998
  9.0980654899999998 11.1866191300000004 13.5077422299999999
 24.6236845299999985  0.2658404400000000 17.9802937699999994
 44.7974758900000012 11.1772781299999995  6.5135141200000000
 22.6317584600000004 21.9644708400000006  6.8614555599999996
 20.4835208699999995 16.5352518500000016  7.9778672000000004
 34.0140308900000008 23.8171304500000005 44.5113961300000014
  3.0348014100000000  5.9072989099999997 33.9727242900000022
 29.5770887000000009  2.1297095399999999 44.0281604400000006
 31.2924963600000012 32.9862684599999980  0.2140588600000000
 47.6872494899999992 29.6021769900000002 23.7886582100000012
 15.9786133600000007  2.5548014999999999 38.5488685600000025
 40.8339430799999974 46.0812921200000005 38.2765799900000019
 14.4799575699999998 14.6469507700000001 21.3015366899999989
 14.9271664699999995 30.8869366399999983 16.7441841999999994
 19.5038348799999994  0.9527609500000001 13.0532113200000008
 35.3226510499999975 17.7962085999999999  0.8779628900000001
  5.9223004599999998 36.1039057999999997 48.3447936800000022
 30.9474158499999987 33.2181535100000005 47.5060718399999971
 34.5493396899999965 20.7521782600000009 31.8599925100000014
 20.8940469499999999 16.2471295399999995 15.5061956799999994
 12.6307939000000005 35.7530860899999965  2.1178515600000001