Na Cl 
 1.0000000000000000
    50.0000000000000000    0.0000000000000000    0.0000000000000000
     0.0000000000000000   50.0000000000000000    0.0000000000000000
     0.0000000000000000    0.0000000000000000   50.0000000000000000
 Na  Cl 
 31900 31900
Cartesian
 34.5730982199999985 20.0617555600000017 27.9257343999999996
 47.8180258499999979 27.5605024400000005  9.3645638400000006
 40.2243987100000027  1.4691961899999999 42.7804259099999982
 10.6182426000000003 10.8034300200000004 23.2483503700000007
 35.0247523199999975 11.0122623900000001 33.0939965700000016
 10.8003680400000004 21.7856679900000003  1.7219275199999999
 40.4359028399999971  6.2190273300000003 23.1924024499999994
 44.7080083199999976  7.4957783600000001 31.5468993699999984
  8.7376284000000002  3.3204987400000001  7.6223698700000000
  9.1704269200000006 27.3652702000000012 28.0962495499999996
 13.6661817200000009 37.5160848399999978 32.8379578099999989
  7.5569294899999999  9.3139281999999994 39.1912665400000009
 37.6167388100000011 24.5291957499999995 12.1929922699999995
 27.6210206700000001 26.4943828900000007 41.0932820700000008
  4.7917748800000002 35.3604480300000006  3.0500791999999999
 12.6810826700000003 30.9563558000000008 33.4719211000000030
 12.5779595999999998 47.7669688200000024 19.4448974099999994
 10.3907263000000007 36.9368481599999967 47.6070617299999981
 31.8865204099999993 16.7486075200000002 43.8465164699999974
 28.4023328799999994  8.0087419400000002  2.9257919000000001
 23.7843868000000001 44.1888934199999994 32.7317218700000012
 22.0494379599999988 34.9038356599999986 28.7659577700000000
 19.4522296899999994 33.6243453399999979 24.3720610499999992
 21.2300786099999996 13.9312804499999991 43.0305376600000002
 14.2464792700000000 40.5770153699999980 27.8973146499999984
 20.1672748999999989  1.3892262700000000 48.7259448699999993
 36.9554852799999978 10.8410559600000003  5.6275955399999997
 32.9982871099999997  2.2114754900000002 18.2685563900000005
 39.6272324700000027 14.8960826500000003  8.4611358400000007
  6.3100515699999997  3.0366720200000001 37.3466068600000014
 34.4214741999999987 21.7168783599999990 45.5746592200000009
 23.2975688599999984 12.2398949300000002 15.9140636799999999
 17.6681905800000010 49.2791357400000010 34.4344608899999969
 39.9841427300000021 13.4868475399999994 23.4466694900000014
 18.1740684299999984  1.5680804399999999  4.7279388000000004
 12.4673566800000000 38.8637863699999997 33.6575982600000003
 33.2538724999999999 47.8351609300000007 15.5497599900000001
 44.8162043700000012 25.9468060099999995 37.9686229300000022
 38.6456527200000011 17.4853132400000000 25.6596593300000002
 11.8943689700000004  8.6592438900000008 35.9120658100000014
 24.0900141800000007 30.8682641900000014  2.9161685400000001
 12.0446396799999995 34.2591267500000001 43.1432393099999985
  8.4231079599999994 17.1754757699999985 18.2213014499999986
 45.4135411199999979 15.3855446600000008 34.8490416200000013
  7.8425654700000003  9.9978750200000004 34.2853813099999982
 34.4037211200000002 23.3408548499999995 39.7474844899999979
 35.9718104299999979 28.2178859799999984  8.0097053000000002
 19.1169846200000002 49.1604973800000025 40.4794505099999995
 38.1246451000000022 10.9101962599999993 17.6685112099999984
  4.6679823000000003  4.7784868700000001 12.0287401200000001
 17.0351834300000000 10.3279896400000002 32.5218146400000023
 44.1385749200000035 37.0287384800000012 42.0075954799999991
 21.6572864299999992 44.0130539000000027 27.3968598900000018
  9.0242266000000004 20.1764636800000012  5.8250142800000004
  1.0149269400000001  7.8770293200000001 39.2317684100000008
 18.3316405200000005 49.8823027400000001 21.8620818899999989
 36.0103397099999967 25.7795048800000011 26.1384590199999991
  9.0807238600000009 19.7259755000000006 34.4701707999999982
 40.1606176199999965 29.5003990499999986 13.2069127900000005
 18.5833094299999999 29.6815268799999998  7.4223285800000003
 47.0764580600000002 14.0306728700000001 13.5189673199999998
 13.2837939800000004 10.7254831599999996 13.1955305900000006
 27.2825829800000008 38.3721646600000028 20.9713831599999985
 16.0368400000000015 31.1698834799999993 22.2316311800000008
 47.0252016800000021  2.5645991600000002  3.2180256900000002
 35.3578117400000025  8.7418722700000000 24.6472889399999993
 46.9852808400000015 31.6150496899999993  4.1400743400000000
 32.2294909700000005 31.0546607200000011 35.6826479899999995
 18.2648447699999998 27.2459823300000004 23.2250193200000012
 42.8997820000000019 16.6360359299999985  1.8557927100000000
 40.3081008699999970  8.2512442099999994 28.6613718999999989
 11.6774776300000003 13.3665381100000005  1.4059503799999999
 29.8080402299999996 33.7322000599999967 37.0863600300000016
 10.4530932399999994 35.1381358200000022 16.6486522699999995
 13.8987455999999998 46.2173789300000024 25.4876031199999993
 20.1456266799999995 37.5475805000000022 12.1853995899999994
  0.0108959400000000 33.1280403499999991 32.9740937299999999
 45.5932432500000004 35.6393569999999968 40.6731217399999991
 43.1570130400000025 39.9181103299999975  3.6802942600000002
  4.7057100099999998 38.8681850299999994  7.5858736000000002
 45.7775622600000034 33.4888813199999973 47.6284154900000019
 40.7791615900000011 25.3688204699999993 23.7656157800000010
 28.7044267099999999 35.2996661700000018 31.4893611900000003
 41.6934420500000016 41.6806163899999973 26.1197105200000017
 43.9746621000000033 32.1459765199999978 27.4274221500000017
 22.6841025199999997  1.7109865600000000  6.5510525900000003
  3.5408201600000000 10.5645029400000006  7.6008943200000001
 48.2307988700000010 15.0365684000000002 19.6051301299999992
  3.4220833100000001 14.9542154600000003 35.4992044099999973
 35.1285033300000009  4.7555083199999997 25.8283313300000010
 46.7645813500000003 22.3186874199999998 10.1794135099999998
 35.4028721500000003 16.0722332200000011 26.0236446400000005
 29.3954665199999994 49.6058201399999987 25.0191190200000015
 46.3333081199999981 23.9095797899999987 48.3074861799999979
  3.9202333000000000 37.3610404300000027 27.0064418099999983
 47.2674957199999994 24.8006181400000010 23.9891483100000009
 35.6156369099999992 42.0096112100000028  5.5356823600000000
 38.2134786299999973  3.9353116400000001 40.7827902300000034
 36.3554115999999965 25.4028320000000001 45.3973653899999974
 43.5201730499999968 43.5485336400000023 20.2049443800000006
 34.5002369700000031 45.4826710500000004 27.2523236100000013
 29.8029506300000016 48.1911580100000023 48.7926234500000007
  7.6222998600000000  7.9937322999999996  0.6588228699999999
 22.8360575300000015  5.6188470199999996 35.9619399199999989
 12.3242933800000003 34.3988816399999990 42.0037470500000012
  6.9766490100000000  6.5398341100000001 14.9918451499999996
 17.9414518500000000 41.9812326699999971 28.5775650900000002
  3.1364531300000000 14.3677069399999997 28.0505520200000014
 45.6277823499999968 16.1379916700000017 31.2259448800000001
 14.4556613699999996  6.3006561999999997 45.1287152900000024
 28.3179150799999988 39.1987383299999976 13.1951380799999995
 20.6857363300000010 15.1705387799999993 21.2453049699999994
 19.8406417200000007 11.6654687599999995 11.5334752300000005
 43.1181944900000005 37.4947508500000026 24.2775460099999982
 32.7158232100000035  4.8407560700000003  8.5872728699999996
 26.2950427299999987 40.7830860899999976 41.3278953100000024
 47.9365287600000016 19.2388220099999998 46.8814906200000010
 37.2128234699999965 35.9239779299999995 24.2971488399999984
 12.1805333400000002 18.2237718999999991 36.9343866299999988
  6.2360911899999998  9.9846168199999994 11.4549523499999992
 23.3841559299999986 17.5086484099999993 17.8538930200000010
 20.3800205000000005 27.0045491800000015 15.4580005099999997
  2.6144890599999999 41.7176188199999984 48.0194472499999989
 12.8498731900000003 17.8187704700000005 30.0753364699999999
 26.1800720499999997  8.4709079000000003 20.5491497000000010
 19.5590822099999997 29.4947324000000002 17.9674339600000010
 28.6625058300000006 30.7354694100000003 21.0344455299999993
 25.9260275100000008 38.7442870200000016 25.2320224300000007
 24.6009875700000009 18.7980371400000017 38.6101818599999973
 21.3265050100000018 34.5696511100000023 12.1262744799999993
  6.2952257999999999  3.8599448999999999 24.0939259200000002
 46.6128965099999988 22.9516863899999990 48.9932068399999991
 28.8273364900000004  1.0443964999999999  3.1719384499999999
 10.7695239399999991  3.3888820800000001  6.9411309899999996
  9.5886059800000005  5.7007874400000000 13.1344851200000008
  1.2913573300000001  3.8426562000000000 33.5227491500000028
 16.8449475500000005 13.0334869599999994  3.8152585499999998
 23.0504874000000015  9.5417562199999999 18.2968199799999987
 14.6534104900000006 29.8701050099999996 26.8549566999999989
  1.2572244699999999 30.1717460799999984 46.5363021000000003
 35.6293821599999987 23.0260311000000009 48.5047558999999993
 19.4324349599999984  0.9343884400000000  4.2665514199999999
  7.9296882799999997 24.2708663300000005 20.4504693700000004
 11.0387364199999993 28.0430462100000000 19.4776668099999988
 11.1460272299999996 31.2796120199999983 16.4392400599999995
 44.3077044099999995 29.5879673399999987 34.9670002599999989
 40.3734246499999969  6.1480200600000003 29.7732245099999986
 48.5843107299999986  6.5104904399999999 21.8127949500000007
  7.6447208199999999 34.8228465500000013 17.5819023399999992
 49.0325634100000016 40.2932830100000032  9.2075653600000003
  1.5510893900000000 19.1593772599999994 11.6535888300000003
 11.8675339999999991  7.6439754400000002 22.2951772699999999
 15.0444215700000008  1.5933258200000000 29.0271131500000017
  8.6906397099999992 13.5815340199999994 14.8422027300000003
  2.9012977200000001 12.1107113399999999 44.7254429500000015
  0.5197392500000000 35.2576523999999978 25.3638037599999997
 39.4497918400000032 32.6514239300000000 22.4820624199999983
  6.0231102900000000 30.4146295299999991 28.6785479800000012
  0.3558469900000000 30.7204246400000009 18.1769769500000002
  0.4515828300000000 39.7526810100000034 23.3097868599999991
 17.5877802400000007 47.8224746599999975  2.3316777599999998
 38.5080366099999978  4.5713195100000004 30.1670598500000011
 17.7748524199999984 41.9446245999999974 13.3055891699999993
 27.0371310800000018 13.0620138499999996 33.2668570700000004
 16.0668153199999999 34.9650122600000017  6.9610890000000003
 45.0228792600000034 49.5317094700000027 29.4411031399999992
 16.6205304100000006 41.2545230699999976 14.7691779400000005
 25.5735923199999995 15.3661046700000004  8.1212128299999993
 43.2240632999999974 16.8319328500000012 44.2954664800000018
 23.9051134199999993 23.2412567500000016 15.8021475299999992
 36.6934728700000008  7.1986046400000001 36.9482187699999969
 38.7129115799999965 47.9049578799999978 38.6270302799999996
  4.4978496400000001 45.3589107100000035 47.2123385200000030
 47.7734404600000033 28.2138207799999989 39.6858929799999984
  0.8033841900000001  2.4780008499999999 47.7602653900000007
  6.7803987299999999  8.1615113499999996 20.5211895599999998
 49.6329577200000003 31.1203535299999992 39.7818214899999987
 13.0738008400000005 31.3706549999999993 46.5985209899999973
 31.3422757099999991 19.6278815199999990 35.8047891800000002
 21.0917613099999990 39.2323398899999987 27.9365522000000013
 29.6328014400000015 38.4937457500000022 14.3847427600000000
 14.3716189599999993 43.7998801700000016 44.5859730900000031
  6.4497521400000002  0.9842337799999999 42.0171610000000015
 32.4249984799999993 16.9495331900000004 20.8043258299999998
  8.3041717100000003 18.2139369699999989 21.6387286400000001
 32.1122816700000016 11.1179949499999999 10.1411829299999994
 42.8614778199999975 22.8576839300000003 19.0938273999999986
  9.9571106999999994 49.1595378800000020 24.3532166500000002
  4.5121761100000004 36.1438133899999983 19.0716829499999996
 37.7752945200000028 39.3750578300000029 26.5970301700000000
 16.2860762600000015 20.0837633000000011 47.8097285600000035
 38.1079070700000031 29.5940924599999988 37.9119309499999986
 35.8235445999999982 36.3140446499999996 30.1484927899999988
  5.7183354399999997  8.0637756100000004 27.8766338100000013
 22.5845199399999998 28.0266590099999995 44.0579496100000014
 31.9590340300000015 35.4849160600000033 44.9841889799999990
 49.2641234100000034 32.1220989299999999 26.1166422300000001
 42.4059324199999992 16.5061223900000016 18.3989468599999988
 31.0998457200000011 45.1069540299999971 12.5764181700000002
 21.8601212899999986  3.0585859000000002  5.6531963000000003
 13.2701551599999998 31.4977799699999998 33.1879371699999979
 39.6600143200000019 15.8607389600000008 21.4397325300000006
 37.5845986100000005 34.3488849599999995  1.7095674500000000
 32.7001922700000023 42.1314538700000014  3.3451135800000000
 21.3238576100000010 40.0747852800000004 36.9162335500000012
  1.1372164800000000 13.1974271099999996  9.1574283800000007
  8.8988247400000002 12.5473529900000003 33.3616312300000004
  8.9360538900000002 38.2577489099999966 47.9858892299999980
 48.8402245999999991  7.6548967499999998  5.8497547399999998
 16.8279691000000007 27.6766287099999992 11.0986599800000008
 35.1782004000000015 40.0142019299999987 18.6918967500000015
  4.7086613000000002 38.4705394499999969 24.3564567600000004
  8.9688360500000002 39.2274923599999994 46.4640482100000014
 21.2582310800000016 37.0896954500000007 16.5114196600000014
  7.4301582799999997 28.6702047499999999 10.1311802899999996
 24.7471529399999994 25.3994746499999984 38.9704169899999968
 25.7983290499999995 42.5163057800000033 21.5512960999999983
 12.6335808400000005 32.5931234700000019 42.6261095999999995
 17.0240375800000017 22.9995369099999998  3.2168244700000002
 15.1689095999999992 43.8635781600000030 15.1581546399999993
 13.1049711099999993  5.2494212500000001 27.0230223999999986
 25.9375040800000001 31.6310271999999983 22.6741518699999993
 34.4704758100000035 45.2868894900000001 36.7516328299999984
 34.6929505399999982 34.4197192900000033 42.2220318500000005
 25.6893734800000004 11.3000785500000003 20.4202216199999995
  2.6647902999999999 37.1306352300000029  4.5862390199999998
 30.9192351000000016  9.5842865800000006 33.1045601399999967
 38.3423373299999994 19.6634745299999985 34.0164540700000018
 14.5435994799999992 34.2764461299999965 34.2301738099999966
  6.5312955600000002 21.4844078600000010 38.4429434999999984
 10.5513356700000003 36.2985639500000019 19.9643686299999992
 41.1435205399999973 49.1497967199999977 10.6333981099999999
 15.5220092100000002 28.4088154899999985 16.9619763100000007
 29.9358693600000016 32.1562605100000027  0.2704393400000000
 45.2739078999999975 18.5700672100000013  7.1195423900000003
  8.1488966999999999  8.5068029200000002 23.8366063799999992
 21.8434206300000007 22.3705482300000007 31.8041145299999997
 31.7528236100000001 19.7064246099999991  5.8784921700000003
 49.8178691600000008 38.9269761500000016 45.6880803900000032
 29.5671120199999997 34.4517047399999967 29.8016401399999999
 26.1657983200000004 18.5723415400000000 45.3443124900000001
  1.8599667400000000 10.4609356800000004 16.9459337000000012
 10.3076654100000003 40.9324932600000011  2.4141677000000001
 24.9164801699999998 21.2821712100000013 39.4515567600000026
 12.3145373800000009 20.4297932399999986 13.5350277899999991
 33.2121391900000020 46.4234257099999965 38.5159084100000015
 36.8725699800000015 17.2836154099999995 35.7241644699999981
 16.0322311400000004  3.7087850499999999 33.5503736000000004
 31.1290424500000000 35.8163934100000034 16.1241006200000001
 47.7590887799999990 37.0051202100000012 45.0553206000000017
 44.7733332600000011  5.4121201399999999 11.5032223299999998
 34.6577669899999989 43.0897808799999993  9.9473079700000007
 34.4050733300000005 46.0674572300000023  5.7535840199999999
  0.4866664800000000 29.4034718899999987 34.1520646299999981
 43.7502034399999999  9.6692918100000007 11.7875285699999992
 12.9927337499999993 18.8760740300000016  0.1762301400000000
 11.9000118300000004  3.4987952600000001  4.2518952900000002
 11.6041074799999997 30.2344059499999993 49.6607673399999996
 48.5166041600000000 18.5661830799999983 41.8390137600000003
 38.3042157300000028 28.9538419199999986 27.2212196999999989
  7.0394419900000003 11.9014670000000002 27.9558078700000010
  3.2629532800000001 40.4557008499999995 38.9641601300000033
 20.6393184900000008 35.0259201300000029 30.6396225400000013
 10.1359914100000008  5.6076348600000001 47.5190122099999996
  2.0382716300000001  7.2313357399999996 37.0598008300000004
 14.0726006699999999 18.1993856600000008 27.0748635600000007
 47.2319323099999977 27.0863190200000012 39.7637466400000008
  9.2897561700000004 32.9318733300000019 35.9951257900000030
 20.0791076599999982 19.5624713399999983 36.4558305099999984
 13.1433187300000007 49.7579734999999985 32.2606214699999967
  4.2650550400000000 32.7800419800000000 34.1655576799999992
 20.5278617399999987 11.7723070100000005  7.1639840799999996
  5.0803608100000002 35.6240527900000004 33.4551915199999996
 31.4039043999999983  5.4212433500000001 14.8370575500000008
 16.4261784900000016 24.7819598600000006 10.3994455899999991
 33.4820906799999989 33.4980378500000029  1.5222274200000001
 34.0763147400000008 20.6218025000000011 40.6346925300000024
 47.2772809000000009 39.2600285799999966 43.3002947299999974
 48.0535822399999972 36.5567846200000020  9.8790429799999995
 37.0753839600000035 25.9781347499999988 14.5107026500000007
 31.3794592500000000 44.5716845800000030 16.3026985599999996
 49.4546230199999997 33.8490658400000015  1.2495131900000001
  0.5682450999999999  0.4953194900000000 24.8346307400000015
 45.6388985700000021  2.9682959900000001 38.1507197299999987
 49.1465689799999979  6.3849195900000000 11.3434948500000008
  0.1180206200000000 33.5725489200000027  3.8297469000000000
 16.5562273500000003 10.5131486200000008 44.4889351500000032
 25.5330107300000009 33.3113285399999981 13.4987757399999992
 23.9238138900000017 37.5400285199999999 35.2592995299999998
  3.0472370999999998 14.9140118499999996  9.7970922100000006
  9.7287020500000008 10.2952846099999995 32.8485092499999993
 34.8950218599999999 30.6323536099999991 37.9671499100000034
 13.8884988400000005 24.0000799600000008 19.3439597799999987
 13.9320555200000005  6.0571379800000003  2.3179541600000002
  7.8555428899999997 28.1093946300000006 34.5955855799999981
 48.0069100600000027  2.1374030700000000 23.3334767499999991
 15.7437507100000005  5.2182442499999997  3.0311651099999999
 44.7919640000000001 18.5388931200000009 33.1765998999999994
 49.1145325099999965 17.9479325500000009  0.9023789300000000
 16.2827111600000016 13.5265058400000004 39.9837119700000017
  6.2470646600000004 44.4157476500000001 45.4707719100000034
 27.2635446500000000 18.3949706699999993 14.2720438800000000
 20.2415571599999993 49.8512592200000029  0.1136533500000000
 10.1717708699999996  6.9529779999999999  8.7012229100000003
 41.4533847699999995  7.0377795100000000 33.9601547800000034
 18.3214685499999987 28.9219186800000010 40.6872143499999979
 30.0115130699999995  3.5002492599999999 28.6893419799999982
 31.7706951099999984 20.0726938299999986 11.7651917099999999
 37.5770617900000019  7.6775332299999999 36.3009126800000033
  9.4394012200000006 48.0162464499999970  9.0541501300000000
 23.1013002000000007 13.5524305799999993 25.7007764300000012
  2.9494697500000000 21.7380456299999985  1.3328395099999999
  1.0336304800000000 22.2274551299999992 26.8383221600000006
 21.6805312400000005 34.6885806299999970 10.9747222400000002
  2.1567599400000002 48.6642986299999976  0.8670693300000000
 22.8341746000000008 23.9725316100000008  6.3386936199999999
 34.4237316600000014  9.6579425800000003 21.0409090700000014
 34.5587720600000026 29.2819400200000004 41.5659522600000031
 48.9596312199999986 14.5218511400000008 18.7521309699999996
 17.0651777500000001 14.4424342899999996 33.9930287000000035
 20.8333980600000004 46.9212312699999998  5.1339593499999996
 36.4548072899999980 45.9460462400000011 15.1991971100000001
  2.9058962099999999 39.3976730500000016  6.6909143499999999
  4.1974796500000000 47.0404228399999980  8.3866964100000008
  5.2066189999999999  7.6454652300000001 47.3340804400000010
 43.8900280000000009  9.7006243899999998 38.3941758400000026
 40.9132924600000010 29.7063534800000006 24.6828577399999993
 44.7899745300000021 35.1019044100000031  7.7074264399999999
 38.7162525600000009  4.0568093999999997 32.7956210500000012
 46.0030023500000027 22.4604218799999984 42.3105996099999970
 14.2475886099999993  9.2217748600000000 40.3700081100000006
 48.7263401299999970 43.5985074999999966 10.1156318800000005
 13.4250746900000006 35.2302637299999972 15.0425909400000002
 20.8259116700000000 21.0974753200000009 35.2677604799999997
 45.2504099599999989 23.6401261399999996 19.6000454099999999
 17.9632181399999986  7.8072543799999998 16.5242940699999998
 23.8104850200000016 32.8216717500000001 33.8370996900000023
  0.1345197000000000 10.8725513399999993 34.9703415000000035
 46.5295806700000014 22.6623943200000006 36.8613044200000033
 27.9433944600000004 44.6307321099999967  8.7144955799999995
 14.5272138099999992  8.8825559500000004 39.1178814900000020
  4.2341628399999998 13.5747921300000005  1.5312459599999999
 35.6507821399999969 32.6954394300000004 12.2504420599999992
 43.1797621300000003 22.2620756700000015  8.7057888099999996
 18.1925006300000014 11.3580808799999993 45.2653415199999998
 24.5950043500000000 18.2381924799999986 29.3009985399999984
 11.8824193499999993  7.8220865000000002 15.8078511299999995
 32.5539741099999986 34.6428974000000025 43.1765924199999986
 18.9887627600000002 44.1356770900000015 38.3248512600000026
 25.7750911500000015  1.9570006300000000 41.3095876799999999
 40.2400820900000014 15.0597475799999998  9.1775301200000001
 46.7487068800000003  5.5165854100000002 17.2509447499999986
 36.6284451399999966 14.2774430399999996 10.9851781800000001
 27.8896639700000009 41.5823758800000007 24.9913704900000013
 29.9638771400000010  2.8830225800000000  4.9605452500000000
 21.8839809199999991  4.0672679699999996  8.5727440700000006
 32.1095826000000031 15.7547934499999993 40.8135475099999994
  3.2929709699999998 44.9630292299999965 43.6323389800000001
 28.7213158200000009 19.1550354799999987 38.6813045000000031
 16.6846659300000013 19.1803611700000012 14.3301362200000000
 46.5995142499999986 48.0359213400000016 39.7299908999999971
 41.9570311900000021 21.8231540300000013 31.7497400499999998
 17.8809900199999987 25.7991869399999985  6.9348258700000001
  3.6183922599999998 14.3186607499999994  3.7311660400000002
  9.7075940400000000  5.5330098200000002 43.2959888600000014
 25.6847109799999984 32.9373823900000033 28.5857699499999995
 41.0355142000000015 33.8872319000000033 42.7065640699999989
 19.2222471400000003 18.3077466099999988 48.2972085700000022
 31.1844373700000013 16.8389325999999997 11.9402752299999992
 30.2058132700000002 19.1036941599999999 25.7877010300000009
 13.8911669900000003 18.8436105500000011  4.5624624999999996
 31.3071686199999988 29.5830329600000006  2.0348784100000001
  0.2013655800000000 34.3513803900000028 43.6502976800000013
 30.5530726799999997  5.4925648300000001 13.5370781499999993
 17.6724256799999999 20.4583988900000016 44.3100653600000030
 19.2684421199999996 44.7066649300000023 34.9174856799999986
  8.1818851400000003 12.9436279499999998 43.5549127800000022
 27.4191594999999992 33.8137890100000007  8.3519530300000007
 21.2745561400000014 11.4649836700000005 41.9805851500000031
 17.6946073199999994 43.2651506500000025  7.3869286399999998
  2.1096058700000002  6.1457988600000002 42.4414431399999970
 13.3348678300000003 19.1236201299999991 10.6835201000000009
  7.9222647700000000 49.5040615599999967 14.7625592399999999
 14.3331015300000004 46.4374423699999994 24.0939276199999988
 46.6414627600000031  3.0646131200000002  6.9526328499999996
  2.9003180099999999 45.6448130500000033  2.3729685500000000
 32.4823731199999983 31.2450986499999992 36.3730122999999992
 21.2176761700000007  5.4833702799999999  9.0042431599999997
 34.3148706400000023 30.0308596200000011 28.6577170599999995
  0.2506532200000000 12.7287388400000001 31.9136382199999993
 22.5176126600000011  3.5159231599999998 42.1206267499999996
 21.3738106099999996 29.6348514399999985 22.9481624500000017
 39.7663748299999966  3.4617842699999999 32.2081533599999972
 22.4335945499999987 41.4236836099999977  7.8504256200000002
 42.1034662499999968 32.9572332899999978 12.2199782900000002
 31.1751633099999985 10.9697450700000001 18.5053947500000007
 20.1695092100000011 38.9413199299999988 36.7641240100000033
 44.6321753799999996 32.9715444599999969  2.7477847400000002
 32.0181672399999968 29.3367650299999987 13.0097981100000002
  5.6768974099999996 11.6147411300000005  8.9542438099999995
 43.9756894200000019 49.4121210599999969 19.5187342000000008
  1.3656630900000000  2.6995294699999999 20.9918694399999985
 10.3497378799999993 48.0445645300000024 34.9960133599999992
 27.9965353099999987 37.7689482600000019 32.7133843800000008
 13.8513210299999994 49.1525412499999987  6.7608445699999997
 29.5146568100000017  2.8370346899999999 32.0420133300000032
 30.1180910699999984 44.7566003299999977 24.1817150800000000
 22.0854222399999998 39.6916073200000028 46.8442832300000020
 11.8683103100000000 20.6913156299999983  8.9417907499999991
 34.6770529100000005 17.2282554099999992  5.2886029700000003
 35.5501672700000029 41.6612251900000032  0.2116939100000000
  7.9394679300000002 38.6375342899999978 31.0388263000000002
 19.5536137399999994 37.5861563200000006 10.5292640899999999
 15.3415745700000006 45.8437329799999986 45.6202575900000014
 39.6693428900000029 22.6460030199999984 11.3727151699999993
 41.2238656000000034 49.5092008299999975  1.1382835700000000
 31.1319435899999988 34.5758478600000032 16.2749007699999986
 32.2571621700000009 46.1245230800000030 14.8594840300000008
 43.3480352099999990  0.4278288200000000 40.5190194899999980
  3.1605899599999998 20.0354266299999999 35.4153814200000028
 26.3155125000000005 34.8185391800000019 45.1879866900000025
 24.4922391300000015 41.0629789500000015 45.4872734599999973
  4.6050268200000000 46.6858424200000002 48.9536048399999970
 13.2365020500000004 15.8899867700000001 13.0077246199999994
 20.8276403700000010  0.1516972400000000 49.5755737599999975
 16.6682606900000003 43.4573721599999985 38.0538524800000033
 21.0985832199999983  3.8882582200000000 49.9559601799999982
  9.8226925600000001 39.9939176800000027 27.7744691699999997
  5.5033661699999996 45.0751915800000020 28.7448581200000000
 14.8304382199999996  5.1751221100000002 28.2772835700000016
  6.3049754199999999 17.7218120399999997  0.4949476100000000
 18.5844922500000003 49.5612874400000010 26.5579910400000010
 10.1553656700000001 31.2307716299999996 45.5787179699999996
 41.5129859700000026  8.7551295800000002 47.4628477999999987
  8.0830485599999999  1.7971439499999999  4.5984151600000001
 35.5635298099999986 16.2455435000000001 38.8495819800000035
 44.9243782799999991 44.0256898000000021 39.7685202999999987
 39.5206066699999994 22.8363547800000006 10.6148098399999995
  3.1090011099999999  2.9817165800000001 13.7105949799999998
 33.9697491100000022 29.5732415400000015 37.4705946200000000
 18.2838580399999984 46.8021176499999996  3.1913564999999999
 37.1287307400000017 22.5775627099999987 11.0963977699999994
 47.1573072199999999 22.8625130200000015  0.2564071700000000
  9.4352705900000000 28.5928292599999985  9.6813155799999997
 13.8710352700000001 30.4897102199999992 40.5596736500000006
 36.4351057399999974 14.8221458399999992 15.8050949299999992
 36.2304771000000017 25.6286568099999990 40.8350522400000031
 14.7229210500000001 48.1341582000000017 40.7968939200000023
 23.3961792300000013 19.5843287400000001  3.8130813500000000
 36.4582979300000005  4.6132928499999997 35.6128970999999979
 45.9616023999999967 26.6515844199999989 33.1792797100000030
 44.1541136399999985 48.1880282500000021 46.1908130200000002
 28.9944108199999988  9.0627272699999999 17.2571521799999985
 40.9566865999999976  9.0316173000000006 44.3919007399999970
 44.6757497199999989 15.3256131900000003 27.5808391499999992
  1.1636319100000001  7.1615281800000004 13.8040893300000000
  5.3293857300000003 20.9859349199999983 10.6081401300000007
 41.0111315700000034 24.0883631999999999  3.1202632900000000
 42.2651963499999965  1.1550632999999999 13.1488987500000007
 43.5413563400000001 49.5759410300000027 22.8409181200000013
 37.3108806700000031 33.9714676999999980  8.4576312500000004
 47.4084051999999971 43.0662171399999991 13.9115009300000008
 10.5961117199999997 38.8497525100000018 47.7903947000000002
 13.1637078299999999 42.4375081199999968 47.1989170399999978
 22.1986951200000000 43.4688431900000012 30.8474588599999997
  3.2410337600000001 22.0544123399999989 18.5082426399999989
 18.0340183299999985 47.7460459099999994 17.7936043899999987
  7.1089928100000002 30.8421098100000002 13.3395300799999994
 47.4820117900000014 30.1721882900000011  3.9686136699999999
  0.4898923200000000 33.6202536199999997  5.6025370099999998
 11.8394434299999993 35.5256849100000025 30.1863395099999998
 41.8080622800000015 18.1026690700000010  1.5590995800000000
  3.7866246700000001 41.8007805399999981 45.7186024200000034
 42.5507896299999970  1.1213320499999999 46.2278408000000027
  1.3202933600000000 40.1705027499999971 45.6397396500000028
 17.1042841500000016 21.7036639200000003 23.4795176499999982
 20.2531997200000013 45.5277087099999989 34.2003664200000017
  5.5583555300000000 19.2813544599999993 11.7244494400000008
  2.8217969500000000 25.9412973300000012 45.3842398700000018
 22.9194766899999998  7.6448104399999997 36.3290313099999977
 32.0292304900000033 15.2768198500000008  7.5111716800000004
 40.2624053400000008 40.2464982300000003 22.8957677400000001
  9.1683501399999994 42.4608372599999981 39.2917992499999968
 27.2699901999999987 26.7252260499999998 20.8741851499999989
 32.4297841599999970 47.3823040199999994  4.3837413700000001
 27.5411684000000001 34.4172340499999976  0.4526991200000000
  8.5140533999999999 45.6955236599999992  4.6661461700000002