Na Cl 
 1.0000000000000000
    50.0000000000000000    0.0000000000000000    0.0000000000000000
     0.0000000000000000   50.0000000000000000    0.0000000000000000
     0.0000000000000000    0.0000000000000000   50.0000000000000000
 25900 25900
Cartesian
 34.6503581799999978 18.5698980599999999  4.2766137500000001
 27.0473536900000013 34.8735155700000021 19.1761851900000018
 44.1444306599999976 35.4461145499999972 42.8472746099999995
 34.1444211900000028 15.2870044600000003 28.6840416599999983
 42.6882209700000033 10.9298224600000005 47.5261050699999998
 21.2479629199999991 14.5127748200000006 16.2064111400000002
 31.1520322599999986 22.2062003399999988 19.6091757700000002
 21.4171881199999987  8.6807138800000008 46.7581687500000029
 14.5421476599999995  9.8757833799999997 32.2911904600000028
 18.0380219900000007 15.0356035299999995  3.3885017099999999
  0.5481612600000000 12.9463612399999999 39.4933524300000016
 14.7742234499999991 10.3734772000000000 47.0313040999999998
  5.1279943499999998 36.2009736600000025 29.7643793199999998
 49.9232092900000026  9.3784898099999996 24.2782325099999987
 44.2538480899999982 24.4249261299999993  9.7335188899999991
 41.2520308699999987 22.8828409800000010 41.9083394999999967
  3.4619829599999998 35.5476651299999986 49.6077952400000015
  8.2146642300000003 13.8617173600000001 23.8836700200000003
 12.8420394899999994 36.1577170099999989  2.7498510199999999
 16.7461155499999990  1.9640926999999999 10.5059741300000002
 23.9072813300000000  9.6773101500000003 46.5517374399999966
 45.0512179600000024 25.8202808600000004 11.4603529999999996
 14.1528213199999993 16.4679752300000004 27.2596465799999983
  2.8800422800000001  4.8706080299999996 10.3091964300000001
 16.6644214300000009 28.9309142100000010 41.8750591100000022
 44.1184157200000016 48.2130823600000014 17.2753061899999985
 46.0712140400000010 18.8943833000000012  7.9000690999999996
 26.4613447599999994 35.8213834399999982 49.9914735999999991
  6.6968309499999998  3.6377621800000002 39.8690122799999997
 28.4894420699999991 22.0528119599999997 41.6105767700000015
 48.9637278900000013 33.3747260199999971 29.0202098799999995
 42.6674546599999971 11.9105374299999998 30.4025241299999998
 25.2230787499999991 24.2846090200000013  1.4238442300000000
 30.5499751699999997  3.4327304700000001 43.9010180300000030
 44.4099826500000034 48.5783638899999985  6.5618852199999997
 35.6048656099999974 10.9762985999999998 28.6505851599999986
 30.3847208799999997 26.0037639499999997 45.2607618600000023
 47.6246192799999974 26.9762514799999984 39.8585409299999966
  2.4974852099999998 25.2339471700000004  6.9501109500000000
 10.5146586899999992 19.8686767000000017 32.8492907999999986
 48.0304087000000024 47.0790836899999974  8.1596559400000004
 39.3374125699999979 43.8929906799999969  9.4943335300000005
 21.2636791000000009 28.6546939199999997 49.4406900399999998
 49.6774451799999994 28.8211497399999992 47.0636458399999995
 48.6955577499999990 26.2391068400000016  0.6686537299999999
 38.0632347800000019 28.7870102900000013 23.2819925900000015
  0.4494084700000000  3.2082323900000000 20.7618311599999998
 44.0963227499999988 26.8964713099999990 48.9933053700000016
 30.4833962300000003 34.4403675900000010 39.2581149199999970
 11.1374389399999991 36.9363184999999987 38.7049580199999994
 14.2293969699999998  3.4748767800000002  2.2539601399999998
 32.3081384099999980  2.8822530500000001 42.0270787299999995
 49.1121849299999980 28.4920745699999998 16.2972339700000006
  7.6113971200000003 24.7514269700000007 47.2330222599999985
 45.4051102299999982 23.6875639400000004 16.8871519700000015
 22.3631599600000008  7.6293745800000003 26.8985865100000012
 34.5434137800000016 21.1553683399999990  8.2756401999999998
 38.6848573999999985 26.3982981099999989 26.1963359000000011
 31.8174198900000000  5.3760637800000000  5.5039287100000003
  4.5298369599999999 32.9698244699999989 23.8399159300000001
 27.4669922299999989 37.7384393399999993 19.9500190699999997
 49.9704299500000033  3.0161603800000001 42.6075631699999988
  5.3142287599999998 16.2427026599999991 41.1036423600000020
 28.9171426700000005 10.4168406699999991 25.8412015000000004
 13.0736881199999999 29.4762823199999993  7.8769009399999996
 37.0740383999999992  3.3634494500000001 29.4949735699999991
 22.0207106000000010  2.0829851700000002  8.7318342199999996
  5.9377686799999996 46.0782832700000000 37.7068863399999969
 39.6387599099999974  8.6378536700000002 26.4066199200000007
 16.0609896100000000 37.0524370099999985 40.3087451099999967
 19.0790260799999984 11.1912679700000002 41.6407344599999973
  5.8240542000000000 34.8789101200000005  9.8423251500000006
 19.9587327999999999 46.4221473500000030 17.0305682000000012
 32.7596699500000028 41.7728594900000019 26.4495016199999995
 36.7737253800000019  6.0025178600000002 34.3177107799999987
 27.7650596900000011 47.3582704499999991  0.4515190600000000
 38.6808597400000025  9.2097006500000003 37.4389056300000007
 35.6869077500000031 39.8585141599999986  2.0474689800000001
 11.8111289399999997  9.6440847299999994 38.1320730999999995
 35.7525254999999973 42.6960769299999967 42.9649763700000022
 12.3578637699999998 48.6163203400000015 44.4958959699999994
 42.5235350100000034 43.0529396299999974 40.7562776400000004
 40.7583385900000010 25.3966749800000002 41.9163284099999984
 37.7315652999999998  4.4179386899999997  2.2956393400000001
 32.8104495199999988 45.2251224099999973 48.6322740600000003
 12.6300460300000008 23.1835457399999996 45.8532042300000029
  4.8035211899999997 32.7806125999999978 43.7559905700000016
  6.9334523800000003 30.5341248100000016 37.0356430699999990
  8.0530856800000006 48.2109792299999995 31.9279007499999992
 12.2279548400000007 15.2369555400000003 37.5117434399999965
  9.8719345700000005 17.6042919399999995 25.3345716900000006
 48.1463310299999989 45.3856214199999997 46.1391403299999965
 10.5315629899999994  3.9791856399999999 28.1731275699999983
  5.7551361400000003 26.5731291700000014 14.5820212900000001
 30.0317390000000017 43.4374240900000004  2.7866721900000000
 35.5994380500000034 19.7552690599999998 26.8071036700000001
 46.9913444499999997 33.5261169999999993 23.4483805799999985
 46.9324535900000015 43.7475019099999969 14.2646105599999995
 45.3096159899999975 18.7160192599999995 10.1357201400000001
  1.0483834400000001 20.1805294099999983 24.1578269200000015
 20.5969837399999989 23.5056463700000009  9.3986052400000002
 12.3582099200000002  4.4340519299999999 23.1107121900000010
 21.7397886900000010 30.6285049200000010 23.2822079799999990
  4.0694955799999999 46.0121380100000010 26.0036124700000002
 42.7148439400000015  8.3821363099999999 28.5649414300000011
 40.9706262400000014 43.3151550299999997 47.8106346400000035
  3.3364563700000001 25.8222614300000011 44.7478580499999978
 27.2502412400000011 44.8046012499999975 30.9332499900000002
 45.1325655899999987 43.0298579800000027  2.8231106900000000
 48.0214416000000028 46.3690387799999968 24.4347194300000012
 24.3294994699999982  5.8975803899999999 20.6336586100000012
 39.9003149699999966  4.5936364200000002  5.2473718800000002
 42.5791712899999979 28.1318860000000015 12.6080468600000000
  3.4435567699999998 25.8586248500000018  5.9078595600000003
 43.3956728799999993  1.0740130699999999  0.9376323600000001
  8.7869962699999995 33.0463406100000014  9.8466074799999994
 41.9319811000000016  0.8063589500000000  2.4748042699999999
 44.0353709700000024  2.4799111500000000 29.8667713200000016
 20.8255878500000016 15.6550181399999992 13.8898857200000005
 47.3093555299999977 28.3383865700000008 33.2631489899999977
  3.7450455800000002 42.9811388199999982 34.0001838399999983
 41.0898662399999992 47.3818344999999965 46.4924132399999976
 47.9893836399999998  7.5708647999999998 43.5246806999999976
 19.3085707100000015 19.1479490500000011 19.5796171100000009
 24.6247032300000015 17.3871971499999987 26.6225251699999994
 44.7805758499999982 27.1383804600000005 14.7604388499999999
 28.6957291099999985 39.1191324600000030 25.2593125299999990
 33.2657493299999985 47.4490568000000010 26.2976878899999988
 35.2403853499999968 35.1565531600000014 26.1889915299999991
  8.3807065699999992  4.5352485800000002 23.9228008699999997
 20.5141535099999999 31.3780834800000008 21.4490679200000010
 44.4845189799999972  1.3104639000000000 24.9668045999999997
 17.0849408099999991 46.6001980699999976  9.5289446000000009
  2.9718791400000000 48.3726745900000026 49.5418836099999993
  0.4378798200000000  9.4461128199999997 10.8180979100000005
 19.7715470000000018  0.3903633200000000 10.8363498499999995
 26.5319599000000004 22.6499758299999989 28.1437758299999992
 12.4402984300000004 34.0957738600000013 47.6712950699999993
 11.4562873799999991 45.8219652699999997 29.7703654600000007
  0.5323600700000000 47.3757384299999984 44.0358479900000006
 10.4972438199999996 27.1769451800000006 12.9176444400000001
  6.8501605200000002 30.6478907499999984 49.0998300299999997
 20.8432366900000012 12.2791088899999998 24.9831846099999986
 42.3837406099999967 43.5283644599999988 31.2214126500000013
 38.2823920100000024 12.1624375800000006 14.0883232500000002
 32.4489173400000013 18.9537294299999992  5.3305254099999999
 40.1405823600000033 42.7677311200000005 47.2569378099999966
 47.3537392400000030 24.2954677100000005 33.9257750399999978
 40.5010174499999991  0.6001981199999999 37.5298211499999965
 13.7041114099999994 25.0004706799999994 32.9106983900000003
 30.1078104099999990 21.9695416799999990 42.0870949199999984
  7.8043952900000004 18.4715607800000008  1.5219541999999999
 29.4841925799999984 40.8246095000000011 39.2118945900000000
 34.3123748100000014 38.0834769900000012 18.9977167300000005
 44.6250183900000010 12.6841621300000007 32.7129183500000025
  6.0186906699999998  6.1341675699999998 46.9543917800000017
 12.4626278199999998  9.3858325899999997 47.6883361800000003
 47.8661836100000002 36.9479585099999994 34.3387537999999992
 31.4351646600000016 30.8124554699999997 14.9391176199999993
 31.7499210500000011 20.9230997499999987  4.5374381799999997
 10.7235630799999999 30.9246708999999989  0.9438428600000000
 13.1668917699999994 45.9499166100000025 30.2484565299999986
 35.8089375500000031 40.8133631800000032  0.1949026900000000
 25.7295927599999992 37.2655480800000021 22.0665939299999998
 23.2441058699999985 13.6873965200000001 44.0733374300000023
 40.5821888400000006 14.8478858000000002 48.4166560700000019
 38.7385469800000024 28.7591077999999989  4.3247726100000001
 36.4532017300000035 18.9615076699999996 36.0594582900000020
  1.3154999599999999  9.6078141899999991 28.5330409299999985
  4.8189390200000002 41.9081769100000017  0.7294061400000000
  9.1289349400000006 30.0095508500000001 20.5211031599999991
 48.1807749000000030 24.2837635700000014 37.2142881999999986
 10.5418224400000007 26.4097531699999983 18.7214978099999989
  2.2137371099999998  6.2796666099999996 42.3566861999999986
 38.8249194899999992 30.4218616500000003  0.2287149900000000
 44.0128302899999966 23.6386373700000014 44.5783602500000029
 28.5007456200000000 12.0316646400000007 16.1875216100000010
 13.6757545700000005 48.4070622099999994 27.4946003599999997
  1.7482199899999999 32.3334511099999986 28.3127290800000004
  2.0376378399999999 46.5792558600000035  7.5532485800000000
 47.4488271199999971 22.4373312499999997  4.2263837300000002
 32.8313804599999983 47.0114202899999967 20.9408530100000014
  2.9165922399999999 19.1658530700000007 20.4925582099999986
 18.4259045700000001 34.1781451100000027 32.0847971000000030
 49.1849413799999979  1.3098346800000000 14.3914231400000006
 26.6487123600000011 34.9085820299999980  8.5381830399999998
  1.2423259400000000 29.7721487600000003 30.5042237900000011
 34.4892115000000032 10.1777260900000002  7.0424578699999998
 12.5893388200000000 39.0176064999999994 18.9124155199999997
 10.9676096600000008 32.6156219200000024 20.7575316900000004
 21.8350640600000006 31.9216560499999993  7.2732125200000004
 40.8828404200000008 17.8989791599999997 28.1427883399999992
 45.8436997800000015 45.0622374599999986 11.0250482900000009
 47.9865305100000015  9.6183090300000007  4.9198381199999996
 37.7192156300000008 46.8571474800000018 28.0776308700000001
  0.7421117000000000 22.6714201799999984 38.5590371400000009
 11.7371946400000002 17.0303062099999991 28.3565546099999999
 38.6132501499999989 22.8952346899999988  0.2095052500000000
 21.1547497799999995 47.8794826000000029 10.4639774200000009
 18.0685603400000012 28.2935953799999993 30.4576034299999989
  0.9409048600000000 13.7879801999999998 34.5831849300000016
 39.5891314100000002 24.5315929299999986  2.4823585800000001
 21.0006028700000016  7.1325107000000001 26.1074108000000003
 37.2532489900000030 15.3557464100000001 34.0298897500000024
 40.3570490800000030 30.9239621000000007 39.0309348899999975
 42.9226696500000031  1.3087374400000000 45.9501492500000026
 34.1585106100000004  2.0878938699999998 41.2323318099999980
 41.8008116500000000 46.2414038800000000 29.2750375900000002
 25.5568546800000007 34.0566532799999990 40.1717524900000029
 16.6441494699999986 38.2201027799999977 15.2673709500000001
 48.7035738100000017 10.9649664999999992 38.1919760400000001
 42.5413628499999987 42.6854867200000001 14.9753387599999996
 40.5185754399999993 45.6973642299999980 35.6006533099999984
 40.1801362400000031  7.5497103000000001 37.9809429299999977
 45.7079042200000032 12.7462169900000006 25.6689733199999992
 18.4346676699999996 31.4594576500000009 39.1047480900000011
 33.5012008400000028  4.6824493000000000 47.9253877900000020
 31.9925461599999998 48.7232759600000023 42.0990411900000012
  8.5852028100000002 41.5037008199999988  2.6996744600000002
 23.4286095100000011 14.6400762600000007  5.7616299499999997
 35.7145877299999981  5.0759035900000002 10.7116115099999991
 30.0546427600000001 28.3809179799999995 48.0884984799999984
 23.3939957400000011 32.8864832800000002 23.1244780500000005
  3.1025254200000001 44.1447037900000012 40.0366714399999992
 46.3369099900000023 34.4461546900000002 36.5218841599999990
 23.3071457700000018 23.1989617099999990  4.9494630700000002
 35.6257841899999974 12.5548063800000005  8.6308889099999995
  9.3499628200000000 44.8250687199999973 24.9299625499999991
 47.8806056499999997 29.3392234899999984  4.3291146200000004
  9.4293992499999995 29.9132698099999992  2.3257336600000000
 38.6056069699999966 44.4363402199999982 41.5700385800000021
 17.6383693800000003 48.0741438700000003 32.1359890399999983
  9.5678455899999992  6.7808972900000004 16.5408135899999991
  1.4540650399999999 38.4711658299999968 34.8840973699999992
 47.0245568300000016 41.7266430099999965 49.6890050399999978
 23.1076360600000008 20.0391846800000017 48.5769205699999986
 32.3040536999999972 34.2305158699999978 12.2801551000000000
 42.5666884299999992 18.3323618599999989 12.0057400399999992
 30.4728050599999989  6.4346859299999997 47.7663609000000022
  9.2275723400000000 37.8083053900000010 44.1887225500000014
 29.8598356699999989  4.2580788299999996 15.5308561899999997
 27.1000484600000000 20.5144612899999998 36.5509222399999985
 11.3501411399999999 11.8222237900000007 46.1151587100000029
  7.4723721699999999 38.1591443599999991 40.7392850299999978
  5.1635587100000002 33.9313168500000018 33.6422466799999995
 25.2400005400000005  8.6889981299999999 35.9916257799999997
 11.2545510300000000  5.2392296800000002  5.7331481999999996
  7.0217557099999999 14.6481361499999991 41.2243422800000019
  7.5206637199999999 49.7951163199999982  6.5200085300000001
 31.7833912900000009 33.4574777300000008 19.8282469200000016
  3.3459110399999998 34.7269062800000015  5.1138698600000003
 48.8107586499999968 12.4206419900000000  3.7298573199999998
 37.7119745500000008 25.1563228599999995  2.3182258299999998
 12.4214467200000005 17.2549973600000008  4.7405541700000002
 24.4938742000000005 18.5437093299999987 14.1227805600000007
 11.5728502399999993  4.8940652299999998  4.5543301899999999
 44.6274558799999994  3.6509007000000002 10.6880643499999994
 34.2974544699999981 37.3172142700000009 40.4202639100000027
 43.3755029000000007 12.0771765099999993 31.1055475500000007
 40.9377150700000030 40.1771159800000035  6.7882705999999997
 40.4639357699999991 27.3684133400000000 30.9230680999999983
 24.0054798699999985 10.1001029899999999  2.4309213100000000
  6.4943760199999998  0.9777648600000000 33.2940218900000033
 22.6258924300000004 23.3741320100000003 49.0366584599999982
  9.1187655999999997  9.0933857800000002 32.5347386199999988
 11.3520186699999996 43.3777533199999965 49.9000625500000012
 20.3511964399999989 42.5585531099999983 31.6021690299999989
 37.6548742599999997 15.4716628400000005 32.2374239000000031
 14.3835134599999996 43.7107867499999969 47.1929610199999985
 22.0959104199999992 15.9664874300000008 48.7541894000000013
 11.6611734800000004 39.3426538599999986 31.9834725099999986
 46.2225577500000000 12.5281775199999998 11.0795714899999993
 14.3581064499999993 16.6950796299999986 44.2034135099999972
 26.7708288900000007 37.3210923199999982  5.5986584199999996
 46.6520485899999997 30.9806828500000009 42.3367126300000010
  3.1292454799999998 43.2288156299999997 46.7043356499999973
  9.7692509699999999 41.8010409400000000  0.0951081000000000
 48.4819192900000004 35.6175035199999996 23.3816123900000008
 24.7594542500000010 32.1474974200000005  2.9891267899999998
 38.2539569099999994 34.2538077500000000  3.7469277600000002
 24.6149320500000002  3.1629691100000001 10.0219124500000003
 38.2825624800000028 15.0276713599999994 20.0725624700000012
  9.5573729400000005 30.7670266000000012  1.4161420100000000
  1.0986970700000001 15.8017272400000000 29.6297832999999997
 37.7679160300000021 15.3646716500000000 34.0363440699999984
 48.8348315200000016 17.0134098599999994 44.3794852600000027
 36.0087012099999981 48.2412506800000003 40.7002090699999997
 48.4137823100000020 40.4392830500000002 13.0302504700000004
 49.4196442900000008 45.9615559499999975 25.8709040799999990
 12.2849124300000003 22.5232246899999993 47.8373688900000005
  2.6588811600000000 37.8155745999999979 16.3622598699999990
  0.5016445700000000 31.1402043900000010 23.4152471999999996
 40.0596711299999981 32.8926359499999990 26.5323384799999999
 29.0128140399999985 18.3655362199999992 19.5672430000000013
 16.6530276300000004 37.4353111699999985 25.2747721200000015
 43.0949476500000017 46.7851794099999978 18.5103052400000010
  2.7001383300000001 31.2248472499999998 46.0077350700000025
  2.0033345300000001 20.0435032699999987 21.1594517199999999
 26.9050722399999991 43.5490848199999974 29.4686263599999982
 29.2031726200000001 17.7222872000000002  8.4809748000000003
 39.7435135400000021 19.2320552499999984 33.1526057299999977
 45.8444210400000003  7.1845008100000003 49.9051032400000025
  5.0700783999999999 12.8076452599999993  8.0938658199999995
 33.6029192100000031 14.2632020900000001 21.6375882100000005
 12.9451120300000007 18.4979429300000007 44.9268611800000031
 35.7558906900000011 49.2548996599999995 27.0985505899999986
 45.3397706100000022 25.5246915299999984 43.4905024899999972
 44.8753722200000027 20.3809368500000012 42.4056699200000011
 12.0943980300000007 20.5477705600000000 46.3797243799999990
  4.0275887800000003 41.6846889300000001 44.5667881500000007
 34.0084257899999969 29.6122976300000005 43.8861850600000025
 45.1123381199999969  3.0668561400000001 44.6510796199999973
  0.6951354199999999 33.1410282000000009  1.2609240100000001
 42.3499019300000015 24.8017631099999996 43.2326250400000021
 10.7291233300000002 24.3758243599999993 34.4800557399999974
  6.2968276699999999 30.7826551500000001 14.0851384100000008
 28.9212474300000011 29.4055030600000009 18.2899047000000010
 48.4283051199999974 34.5241743300000010 47.7979654700000012
 40.4056018899999998 46.9509185300000027  4.0876961100000004
  1.9085197500000000 26.4914139800000008 41.1946995799999982
  9.3159104999999993 22.5077291600000002 37.4039748599999982
 48.6055138999999983 12.8720837899999996 41.1123223999999965
 24.8026222599999997  7.6722763299999999 47.9482474699999983
 16.1952742000000001 43.9734545000000026 11.8498531200000006
 10.4814304800000002 11.4020541400000006 34.3238694799999990
 31.2742716099999996 26.6829155299999989  9.7612739099999999
  7.7306397100000002 28.8615427800000006 25.9495250499999983
 33.6675756799999988  0.9443994800000000 22.5221422599999990
 29.6449735399999987 43.0703423699999988 33.2441322399999990
 34.1306038099999967 33.0582799800000018 10.5115847500000008
 18.2048566299999983 19.0253107200000002  8.3972687399999995
 32.8957240299999967 28.4336888600000002 35.0086642600000033
 40.6202048000000033  3.7821065400000000 15.8646501700000009
 37.1753645300000031  6.3516601000000001  2.3513316000000000
 18.8301254900000004 27.9190264299999988 35.0772200799999965
 42.8378530999999967 25.7970138300000009 20.4115084499999995
  6.2224645399999998 30.9615731799999985 21.1605188800000015
 44.8407626699999966 38.6981725200000000  0.1855007100000000
 17.7105015899999998 10.4002646700000003 47.2482828899999987
  1.8904922799999999 23.5037023800000000 26.7258614899999998
 31.5540486400000013 28.8954843200000013 46.4049713699999984
 28.3537641100000002 41.7133410400000031 26.1228973599999996
 47.5359854000000013 37.3066919099999978 13.5709283000000003
 36.5919470300000000  0.8536642200000000 47.5345261399999970
 12.7808072399999997  7.0273346500000002  8.4135183399999995
  6.0027491099999999 38.2042857499999968 49.4306515899999965
 30.9612725100000006 16.1070322499999996 10.8909586300000001
 44.3416311800000003 49.7953177400000015  9.9053045500000003
 28.4536526199999997 20.5395931900000015  8.9428104000000008
  1.8144536800000000 45.5229525000000024  4.2626134400000000
 41.7440400400000016 42.0809866099999965  5.1419965200000002
 21.5355927899999990 48.7080608500000025 36.3786867299999983
 16.5878553699999998 42.0852358599999974 26.5591812900000015
 30.1599568100000006 48.3941549700000024 10.5625145899999993
 24.1826888999999987 38.4523169499999966 18.0910617199999990
  6.4743236000000000 13.9566952200000003 20.1765538299999996
  7.3401993599999997 16.7307114500000012 43.0674062800000002
 33.8973087899999967 12.0688035199999995 40.3807758499999991
 29.6997810199999996 14.2195254200000001 37.5636748399999973
 32.6831131599999978  5.0829259000000002 28.7356078500000010
  9.3611781500000006 33.3212157399999995 29.6729436699999987
 13.1643424800000002  3.1040667800000001 20.0503773599999988
 36.6923147299999997 37.7336416600000035 39.3153278999999998
 22.7160803099999988 39.1618510699999973 43.2308624699999982
 31.1055330499999982 40.6939236600000029 42.7750153200000014
 19.6824842199999992  3.5123263499999999 31.6689679499999990
 10.3444139800000006  8.5656847799999998 13.4641725399999999
 42.3478794899999968 40.8106674599999977  4.8880510499999996
  3.4740319700000000 38.0553610300000003 46.4528890799999985
 33.7067268200000001  8.9577432100000003  2.7900717700000000
 42.7362381399999975 17.9544976500000004 11.2420546199999993
 45.2119581800000034 27.3812064100000008 45.9361281199999993
 48.5053582600000013 29.5562349200000014  1.6402410400000000
 17.5310768000000010 44.8078378499999985 35.3308208500000021
  5.1059440699999996 15.6020406699999992 23.4975512199999983
 23.3434367599999995 33.1415714899999969 10.3919490299999993
  7.4873285599999999 39.5311680599999988  0.3415401300000000
 40.2650121100000007 34.0585133499999984 21.4337931799999986
 37.7619979400000005 15.8993447299999993 20.2868325700000014
 10.7950548499999996 32.4867947400000006  5.5592139999999999
 33.7096575099999995  8.2137807800000004 49.0135295999999983
 20.3920048099999995 28.4247710699999985 35.1274318500000007
 36.7470326500000013  7.3778138999999996 48.9182105699999994
 18.3651315599999982 12.7661281100000004 10.3151312100000006
 16.4103236800000012  8.3101306400000006 18.3656364799999992
 21.2522602999999997 36.7388148499999971 19.2611797600000010
 22.6481752299999997 47.8811624900000012 38.6979958499999981
 47.2161762200000013 12.2736800800000001 33.7410238699999994
 35.3882311300000012 20.0006181000000005  0.3884095000000000
 27.9984697099999984 20.2804688000000013  3.8391099099999999
 23.9202514199999996 27.6655644500000015 25.1417784600000012
  7.8705823300000004 30.8772512900000002  3.9623560200000001
 45.3175769400000021  2.5156281200000001 30.1618157099999991
 29.6366297299999992  2.8358927000000000 12.8486253599999998
 46.8464487700000021 48.2644492299999968 30.5981860200000000
 13.7123926399999991 14.1830563099999996 24.6274788300000012
 14.0366624400000006 14.1856419200000001 18.0837854600000014
 34.1822167799999974  0.5173959500000000 45.8737970099999970
  0.9063097200000000 32.3474419900000001 13.4575587500000005
 31.1899568999999985  9.6056700700000004 42.4969150000000013
 45.6503232199999971 44.9823959900000006 19.1294712099999984
  9.0226324800000004 43.3840624700000035  5.9379743700000001
 49.5351905699999975 37.9479091800000035 40.5095734599999986
 44.4011242600000031 49.6953848699999980 30.3335907300000009
 16.6594189399999983 44.8541858399999995 14.3014841100000005
 15.0434050300000006 34.5083617299999972 32.0355966099999989
 22.2722879499999991 30.3435451299999990 33.9629319699999996
 14.9975434900000000 13.7135151099999995 33.0485194099999973
 46.4657979300000008  0.6658135700000000 40.3286433999999971
  3.5095674899999998 35.3008606400000033  1.5647809699999999
 49.2738080900000028 44.8925788700000012  9.5731073599999998
 45.2153480599999966 34.3548267099999975  1.5724739299999999
 28.5693414399999988 14.9215980500000001 37.2984304000000009
 24.7197893999999998 15.5004944499999997 16.8102071500000001
 29.1515128600000004 49.4766211100000035  3.5710541500000001
 18.7071798499999993 11.5716656699999998 34.9849557900000008
 42.1519621899999990 48.0285900399999974 16.5128072299999999
 30.7511733999999990 34.9713137500000002 12.8702570499999993
 10.4102584300000007 15.2135154299999993 43.5538374300000015
  9.3457249699999991 23.5996300000000012 38.9814080399999980
 10.5249053099999994 42.0836277499999980 49.5315976899999981
 27.5623831999999993 40.9744866400000021  8.1969301500000000
 15.8050097100000002 34.7982515300000017  4.2134266100000000
 15.0610905400000004 31.7487790600000004  1.7297117700000000
 21.2657958799999989 14.2314119800000007 37.3411418299999980
 42.5708132500000005 37.6583407600000015 23.7331122000000008
 32.4168086700000018 29.3032638399999996 49.9553578900000019
 49.7000665600000033  9.0187333100000000 27.8507421199999996
 37.4227363800000035 13.9303226799999997 26.9332613700000003
 17.3238264000000015 11.5503246300000004 26.3059745000000014
 24.5133655499999996 46.1347866600000032 37.3593149200000028
 48.0058305200000035 33.9935312200000013 29.2792244500000010
 45.9253059699999966 16.6174061199999983 38.7446724799999984
 31.7102995800000009  5.0051230699999998 21.1034840800000012
 36.2568814899999978 19.4072729300000013 28.0361341899999985
  3.3073460200000002 36.5646135499999971 41.4598761600000003
 16.1385409399999986 40.4575387399999968 19.8536656399999991
 30.5584513499999986 45.8918255999999971  3.9128045999999999
 12.5069716300000007  4.6721938800000000 25.5625183599999986
 29.2460433600000016 38.2507119699999976 29.7161448899999989
 39.2471415199999996 26.7074820700000011 22.6511671499999991
 48.1663676200000026 32.1405944999999988 36.9718115299999965
 35.2363014299999975 16.5181207999999984 20.0563077400000012
 36.3642577900000035 24.0807601399999989 25.3356105300000003
 15.6061782099999995 43.0371900100000033 26.0524252300000008
 13.1108710100000003  4.4091284499999999  4.2219069100000004
  7.5894490399999999  5.8699907099999997  6.9338021799999998
 36.4132934000000006 48.2220962199999974 18.7711185900000004
 36.1900801199999975 46.6766447700000029 44.3687244999999990
  5.1526558600000003  0.6870549200000000 47.3319990299999986
  8.9077226899999999 12.0951820699999999 33.7250284799999989
 16.5536210299999986 16.7085685599999998 20.9118084400000015
 14.7644190200000001 45.5904463999999976 38.6326179599999975
 48.4099762499999997 26.4708452299999983 45.4957517100000004
 47.0989492900000002 42.0407862400000027 29.4942775899999994
 10.3234191000000006  5.7048264000000000 31.0172815300000018
  7.4505958999999997 22.1652470400000006 31.3070003800000016
 26.7553657399999985 27.4320222800000018 49.9984565199999977
 24.0587164499999986  4.8474206600000000 20.5990523400000001
  8.2727265299999999 39.7148736199999988 37.8809969100000004
 15.9150954599999999 35.0094682699999993  4.1332139699999999
 16.9271145300000008 44.0139521099999982 42.4931435600000000
 32.2637759500000030  7.2824456800000004 46.0644814199999999
  5.7391712699999999  8.2515375700000000 33.5919845299999977
 30.4840078299999995 44.7195209799999986  0.9890621500000000
 23.1676098999999986 28.0195867499999984 25.1945751599999994
 45.2247202799999997 41.8738128800000027 23.1730949899999992
 20.2075642199999983 28.5317817399999996 33.6556539099999981
  0.5752589800000000 18.3776585499999996 23.3072007399999990
 24.1228645999999998 32.9853533699999986 34.8340693099999967
  6.2028799499999998  1.8032654200000000  7.4819088499999999
 48.4420128399999967 14.9097888600000008 38.8213146699999996
 19.8355892999999988 26.7493623000000014 26.5321218799999983
 25.3723783800000007 33.5633814299999997 49.7516239799999980
 25.5441634300000011 20.7548288999999997 26.4092516000000010
 10.2917154800000006 22.8621281100000004 43.7871303399999974
 30.2995914500000012 45.2335028399999999 39.4822676599999980
 28.4725903699999989 38.8262914199999969  3.4799107600000001
 36.8601423900000000  8.4130812899999992 48.6573102400000010
 33.4132239799999979 26.0555054400000010 14.8799557500000006
 37.4163590499999970  6.7466303999999999 40.6170830800000005
  1.3153009800000000  6.2636066000000001 22.4361673599999989
 34.6647650900000031 10.7068060200000001 49.2888599200000002
 47.8686169500000034 27.8450424000000005 41.6275853300000023
 34.8265609199999986 30.0093280500000006 16.7765767900000000
 13.9260377999999996  4.9173593499999999 46.0586694300000019
  8.0570825900000003 15.3870544900000006 10.2248699900000002