Na Cl 
 1.0000000000000000
    50.0000000000000000    0.0000000000000000    0.0000000000000000
     0.0000000000000000   50.0000000000000000    0.0000000000000000
     0.0000000000000000    0.0000000000000000   50.0000000000000000
 Na  Cl 
 1000 1000
Cartesian
 48.0444326799999999 32.7799769000000012 33.0718225700000019
 38.1219687399999998 15.9285302600000005 10.8080477699999999
  0.8589324500000000 36.0777634399999982  8.9700755500000007
 10.0597220499999995 23.7485276899999995 41.5048498199999969
 22.0108492899999995 36.3439633699999973 32.9923263900000023
  2.0296444700000000 12.2345403800000003 25.9202088400000008
 40.9498899399999985 44.8002795000000020  8.2974995299999996
  6.0745876799999996 45.5950981000000013 16.8137423499999983
 38.5677430000000001  8.0566464000000000  8.0560944100000000
 48.7787162899999984 23.8846513800000011 29.3357213899999998
 45.4693393299999968  3.1861109399999998 48.9666376300000010
 32.2785769700000031  6.0432012700000000 18.0837225500000010
 33.1248742900000011 29.7622178099999992 13.5947684599999992
 37.2734868599999984  5.4936676100000001 32.0714858300000003
 25.4623063300000005 44.9824211600000012 19.5524864700000016
 18.6400816200000001 33.8517271099999988 45.9776048299999971
 45.6043726999999990 22.6919302099999989 33.2710798499999996
 37.0390709899999990 15.6661203400000009  0.4846163300000000
 44.9467072699999974 19.3090961199999995 27.9784414800000008
 33.6659790400000034 24.1097358899999996 12.3310463800000001
 47.8964973200000017 46.4305098399999991  7.5788552700000000
 27.8204813699999995 28.8304345600000005  3.1136225000000000
 30.6533443400000003 40.7583536100000003 25.6490753900000001
 34.0099960300000035  6.0032060899999999 45.8846932300000034
 34.0390458899999970 44.2442086000000003 12.4139953199999997
 42.0193930599999987 19.9391342599999994 17.0294398300000012
 13.7952032800000008  5.9815203800000001 31.4130247300000001
  8.7065550799999993 31.0711825600000004 13.3653598700000007
 31.6032795600000007  6.3195909900000000 13.3657160699999995
 37.5900607299999976 26.1506310999999982 13.6569291600000007
 32.0084755700000017 16.4488895399999997  6.4865108400000002
 18.7876488399999992 14.0140579600000006 34.2721555500000008
 12.1183987799999997 23.9282338299999999 11.8259689399999992
  9.0599074300000009 19.8641818100000016  7.3036962499999998
  3.2227991600000001 15.5855317000000007 46.0312384599999973
 47.0248441199999974 46.5551215200000001  1.9273999600000000
 43.8111642799999998 34.2380748499999967 39.3240420099999994
 19.1740588099999982  8.4064893900000008 37.8672269999999997
 34.4842693200000028 27.1145125500000006 13.6124474099999997
 34.4035523900000015 20.5049699499999996 27.0299508099999990
 42.3833130599999990 36.3425835199999980  9.8012289999999993
 29.2558186400000011  2.5438120600000000  3.8492932700000000
 45.0719902000000019 24.9393521000000007  5.6907327600000004
 44.1455634699999990  4.4853230499999999 34.8244904900000023
 45.2117250499999983 23.4629346400000003 41.5424942499999972
  4.7008013100000001  6.3676874400000001 21.7228306300000007
 45.6144416500000034 41.9207300699999976 11.7103207200000003
 15.3603619699999996 11.6036879000000006 23.1824559299999997
 27.5367609400000006 10.3410403300000002  1.8648134599999999
 41.9197435199999973 45.1293748100000016 39.4024018599999977
 36.1680854999999966 27.0129629099999988  6.8675795099999997
 23.4088856400000012 33.1409014500000012 49.1305862999999974
 37.7639693599999973 49.0330616199999980 48.6667154800000006
 41.4870997399999979 23.6853058599999997 28.9355221600000014
 19.3208961099999996 26.3009864299999983 40.6788633199999978
 39.6557546900000020 44.2690261600000028 29.5226929100000000
 37.8998195499999966 32.2671152100000000 13.4053396399999993
  3.5432560600000000  1.5046318500000000 38.3475606299999967
  7.4514671999999997 36.8091665600000013  1.6623950599999999
 39.8737248699999967  7.6938642499999998 10.7763784299999994
 18.5922549400000001 30.0288195900000012 44.3707846499999974
 39.7776874199999995 43.5924685100000033  8.6181881899999997
 45.8888718099999977  4.2685791200000001 42.0092219000000000
 48.9924463400000008 16.0457015299999988 30.1056904900000006
 36.3399956299999971 16.3065731599999992 14.5751024000000005
 13.7459792699999994 28.6736353000000008 17.7884339400000009
 20.2092930499999994  7.5883515700000004 37.4248036400000004
 48.6747063700000027 25.7899441399999994  1.5911790299999999
 42.9459855899999994 43.1797420799999969 21.9251504699999984
 46.0040092400000020 39.3833801299999990 16.4699015700000011
  9.6357709299999996 48.4020329299999972 42.9674644500000014
  4.1749373600000004 18.1721480900000003 19.2929162500000011
  6.0434151900000002 21.6791565900000016 11.5847472600000003
  4.8472342099999999 17.4653740900000010 40.5423540099999968
 45.3438667300000020 44.3681747600000023 45.9132356300000026
 13.7512624999999993 17.4688816899999999 49.4944804599999983
  3.7330551299999999 41.4576088499999997 28.0319490100000017
 32.9670696700000008 27.5398980299999998 13.0661160699999996
  2.2128657399999998 41.6345731299999997  2.2706233000000000
 12.3657620300000008 31.3624998899999987  9.5357074700000002
 16.6354138499999991 41.4005460200000002 18.9769204100000017
 45.1013238600000008 17.9501353600000009 37.9250187100000034
  5.7895224100000000  4.5031494500000004 34.4327758499999987
 11.6636429300000000 30.8466726800000011 40.0277745400000029
 46.8066902400000018 30.0427807599999994 29.0162919700000010
 26.8191229399999997 48.9993266800000029 31.6834378900000004
  3.5406210200000001  7.2175561300000002  5.4657948899999997
 13.6147621599999997 23.3076513399999996 31.6960508200000000
 15.5260501000000009 46.3240913300000017 19.0030356699999992
 34.0205473099999978 33.3385592200000005 21.1648927899999997
 18.3530664899999998  9.9884224600000007 25.4163464400000016
 22.5346453599999990 39.7845534300000025  8.9895440099999995
 37.2661333200000016 31.9027748100000004 39.9362441999999973
  8.4563312400000008 25.5591388200000011 22.4461684599999991
  2.7532629399999999 24.0903144299999994 35.9147070799999995
 18.4819632499999997 26.3563910399999983 21.8641909900000009
 21.4579226799999994 43.3064523099999974  1.5440108699999999
  0.1907381500000000  5.7360245599999997  5.3648473000000001
 16.9886070800000013 27.5192748899999984 16.4530482700000000
 26.3822494200000008  6.4659978300000001 24.0255173599999985
 46.8703374999999980 49.7622793800000025  4.6294927399999999
  7.8844572700000004 14.0733150100000000 30.2054274300000003
 12.6187645899999996 33.5764455999999996 19.3211961899999984
 31.3442987799999990  3.6295427700000000  1.7253771700000000
 48.4140376300000028 44.7304813200000027 35.1994893700000020
 47.8178038300000026 23.8288895799999985 42.1471771699999991
 17.6067761199999993 17.0862950900000001 19.3616277900000000
 10.8782013699999993 29.9304189500000000 40.5513475600000035
 46.4984494200000000 49.4394777999999988 29.3034494099999989
  3.0741660400000002 17.5086416199999988 17.7396280299999987
 49.9283136099999965 45.1668451299999987 19.1660744200000011
 24.2128228400000012 44.9134984299999971 11.1680505199999995
  1.4250069200000000  0.0912452600000000 33.5590557399999980
 27.0497407000000010 24.9918757099999986 38.4550964600000000
 14.8062685100000007 48.9548607500000017 34.3446112600000006
 29.8814983000000005 18.3419507300000006 23.1659445099999992
  0.0293597300000000 43.4490599399999979 48.3504219699999993
 25.5420018599999992 34.4252141099999989 34.5735804299999998
 28.1663522499999992 41.8822460499999991 14.9094249199999993
 32.7046157699999966 16.4772660100000010 33.4098007699999968
 18.5215171000000005 41.1379789000000002  6.0113067100000004
 32.0318215400000028  8.8246950000000002 16.6488472899999991
 17.1764290499999994 34.2430532799999980 22.9965383999999986
  2.8208762200000002 10.4666087099999991 12.2926337900000000
  2.2961665700000000 41.6714648000000025 22.3088580999999984
 44.9780632699999998 46.3094097500000004 22.2497438000000010
  1.4439649000000001 18.7179992300000002 43.4130509100000026
 43.1466787800000020 16.2302365799999997 31.5862588299999985
 20.2520984099999986 27.0179541000000008 40.7545184199999966
 11.1910981599999992 38.7868489100000033 40.5696077899999992
  3.3981716999999998 13.0717192600000001 46.3856104500000015
  2.9548528200000002 12.2112655799999992 34.7406639200000029
 36.3384711699999983 40.6849968000000004 42.7411687099999966
  0.8224432800000000 22.8042508999999995 21.0449558500000009
  2.5730514699999998 45.2760193900000019  4.0579559800000000
  2.0660987600000000 24.9218578599999994 11.6649966000000003
  3.5979281200000002 20.3779067199999986 41.4783112000000003
 25.9762822299999989 33.3754491400000006 41.1737786999999997
  7.6986621900000003 41.4153740900000003 18.1923880599999990
  9.4660561100000002 46.0050579099999979  7.0083637100000002
 39.5687999900000023 32.8213541499999977 28.4991245400000004
 34.7861166499999968  0.2625482200000000 12.6478631099999994
 22.6353037000000015 31.5493592400000011  0.0808153300000000
  8.2632544299999999 30.5171312400000012  1.4248191400000001
 46.9352618500000034 40.9459870000000024 29.2035655500000004
 24.3261775799999995  0.0666100100000000 19.5143817099999985
 28.2133722599999999 32.1475341100000023  3.6058446900000001
  3.4316625900000002 25.9531967200000011 45.3773233300000030
  6.6732401299999999  7.1468517699999996 17.1376701500000017
 32.8222517100000033 43.5844512899999970 23.8727626000000015
 29.5210791400000012 10.7771455599999992 31.4854156600000010
 25.3810066399999990 28.5785687499999987 20.0050181100000017
 24.3393813100000003 21.9817450799999996 47.1896235600000011
 16.0031479899999987 14.9081971299999996 12.0692192600000006
 47.3681583300000000 16.6370352299999986 18.6511811399999985
 20.4014561000000008 37.2726747500000002 41.8444796200000013
 30.1689641500000008 49.7803981899999997  9.1523466700000000
 23.4904396499999990  3.8191254300000002 38.0410490499999980
  5.9113864800000000  2.6725936500000000 18.2814094099999984
  5.6479375400000000 24.8861844800000007 12.1025003800000004
  6.7238564399999996  7.8551896200000000 22.1719195900000017
 43.4526107699999997  8.0292268000000000 47.2148193499999991
 39.4688140100000027  2.3570429100000001 14.8201531299999996
 32.3137129599999966 46.5736760500000031 13.7733876100000003
 39.3255122200000002 43.8838631599999971  6.0881043999999997
 22.7707272699999983  7.6132846299999999  6.4748321200000003
 22.5034817700000005 16.0180955699999998 16.1323024500000010
 35.6072784600000034  1.5290222400000000 48.2767383799999976
 37.1419405500000011 44.5948319000000026  5.3397748900000002
 45.5965375999999978 41.0073976500000015 11.3322299700000002
 10.7891479100000005 33.2089093700000006 42.1397285299999993
 42.4173473999999970  8.3578252299999996 19.9685943600000009
 12.1654736600000000 15.1158595099999999  2.2507213799999999
 27.8741749399999996 31.2581597000000002  5.8901478300000001
 45.7146309500000001 25.8024254500000012 11.3644848399999994
  2.8967021300000000 34.8726644300000004  4.8711474499999996
 19.3752625800000011 40.0382064699999987 22.1361449300000004
 42.1878792300000001  1.6862339799999999 40.5345248200000015
 13.7587290600000003 42.9592342999999985 15.8509044299999999
  6.1507269500000001 25.2679090100000003 27.7467869600000014
 40.2484101699999997  5.0296659600000000 33.5957977600000035
 44.5729717399999998 37.9359571399999993 39.6317189499999998
 40.3004112400000025 29.0116693999999988 49.1275379400000034
 36.5302082799999965 13.2105400100000008 29.5460301399999992
 30.1284892599999985 19.5190345699999988  6.4140625800000004
  1.1497712200000001 24.2049513500000018 12.6173351000000000
  9.5510572499999995 24.6191542900000009 24.1262244599999995
 39.4545641699999976 12.8599692900000004 37.5038476599999981
 27.1676260899999988  6.2916470000000002 43.7111665899999977
  3.5769304300000000 17.4696987999999997 13.2278019199999992
 19.6667993500000016 39.8967305800000034 44.3509416899999991
  6.2769186699999997 46.1721072400000025 14.6064184400000006
 40.0747904300000002 37.0027149300000033  4.6297754600000003
 12.6362373600000009 27.2413861399999995 45.9767981399999996
 32.0463619100000017  3.2046404000000002 10.3911752899999996
 44.4830333999999965 26.3423893699999994 36.5381808699999979
 47.2058081099999995 38.0168292800000032 48.8497904299999988
 18.4276959500000004 14.2857963300000002  1.3788944599999999
 25.0791595700000016  5.4348375899999999 43.3153858800000009
  1.6905572000000000 13.1949283499999996 17.1607396200000011
 20.5507591000000005 46.6081883299999973 43.8212234000000009
  3.3017383200000001 42.3159530599999982  4.2230514799999996
 26.8262733599999983 19.1763572000000018 47.0354914699999966
 25.5050546400000009 13.4532934599999994  9.5031537200000002
 19.5045045200000011 12.2074712600000002 20.9694505999999983
 33.5562336200000004 29.6184211200000007 46.8037234600000005
 30.1801995699999992 38.6142530400000012 39.7508861700000011
 43.1438291899999982 18.3371612199999987 42.6686061300000006
 31.2631920100000009 40.4681551500000012 48.2835365199999984
  1.3983227300000001  1.6101551700000001 11.8779679599999994
 33.0074748400000004  6.6296541600000003 24.5975151300000014
 10.4368015700000001 11.3239982700000006 22.4388966399999994
 30.5358979499999990 16.8368919400000010 27.6427772300000001
 42.1568334800000031 29.9002388600000018 33.3145729000000017
 18.0266556400000013 24.0013649600000001 40.9408257500000019
 42.4584365899999980 48.9437351699999965 47.3569969200000003
 29.0471817700000017 45.9840670000000031  4.2140294599999999
 25.1931081900000002 20.5693092100000001  8.3798254599999993
 39.7265839800000009 34.6969657699999985  1.9037621800000000
 46.5309645299999985 45.9207984800000020 40.8601082799999986
 35.8398936600000013 11.0927822099999993 36.3906370600000031
 17.4371436300000013 16.0730221600000007 39.2834707600000002
 37.2930280799999991 33.9229490800000022 43.0051303199999992
 37.2252936900000009 45.5110161500000032  3.6485075700000000
 20.4667874500000018 35.2966291099999978 30.4453895599999989
 45.6622829200000027 45.9889942800000000 37.0267991799999976
  9.4138980700000001 19.3847853999999984  0.0882404600000000
 33.0574514999999991 46.5872998800000033 42.7490817099999987
 33.8163274300000012  1.0150571399999999 10.0652821600000006
 17.1973332399999990 35.5797262600000010 38.4591885299999987
 33.5816623300000003  6.9988370399999997 29.4541984499999998
 36.7132953999999998 40.3557957800000011  9.8596805500000002
 11.6510369600000008 18.9782478200000000 17.4111720699999992
 29.5690162699999988 16.4564678800000017 33.8555833899999996
 10.7901165799999994 49.4893227000000024 17.0466239399999999
  2.6085775099999999 42.3622523900000019 32.3758591599999974
 41.0648733600000000 27.3265088799999987 26.6347508499999996
  0.2575962600000000 29.4202958099999989 16.9117422399999988
 35.6518067100000025 49.9154083900000032 28.2688040700000016
 13.7899217499999995 17.2148402400000009 29.8199049299999999
 33.1422190099999980 21.2749068000000001 17.3586310399999988
 46.5119463600000032 26.2824862900000014 29.7469956000000018
  7.7550618699999996 39.3248702300000019 33.0940391800000029
 11.5164808300000008  7.4932830900000003 39.6089083700000018
  6.9229738400000000  4.4212505499999999  7.9579514700000002
 49.2903919399999992 23.6173718100000016 37.1680334200000004
 33.1376069800000010 43.7605890600000009 34.2204140899999985
 42.4995961999999992 40.7133834600000029 19.8358561199999990
 31.2338718799999988 47.6847279099999994 37.2219961300000008
 40.0889735599999995 25.3786611499999992 39.1579294300000029
 27.3199198000000010 15.8920171499999991 47.1322598599999978
  1.8915021999999999 40.4775320299999990  5.8807863899999999
 38.3768252300000015 49.3015998999999994 11.9894708800000007
  7.0370724700000000 22.0769870200000007 47.9208413699999980
  5.5809638499999998 49.2594083800000035  2.8765883099999998
 46.8196880100000001 48.4963127199999988 27.5278381000000003
 10.3748918099999994 20.8066399500000010 47.1977050599999970
  1.8290038500000001 40.0676429700000014 16.8753818500000001
 24.5426766000000001 38.7655996900000019 33.4339865199999977
 25.0113968900000003 16.5474527400000007 13.0381334399999993
 31.9087276200000005 39.9850269499999982 28.3479488099999983
 43.9756851400000031 49.3401184700000002  9.3710832800000006
 49.7966988900000018 33.1183157800000032 19.5332852499999987
 45.9252236600000003 15.2340953500000005 39.4406181700000005
 28.4696016100000016 38.5943055999999984  4.4942714800000001
 35.2206979999999987  4.2713570199999999 38.6974277200000003
 37.6676143999999979 29.5952560099999999  7.4676798199999999
  9.2947779300000004 17.3326133800000015  9.2331299100000006
 31.2144572300000007 21.3826536099999984 28.2591689499999994
  1.8525588099999999 35.9559229500000015 11.1970369499999993
 38.6000579399999992  1.1738022600000000 28.0945199400000014
 34.5966983699999986 16.7095846799999990 37.9897288000000017
 43.3719262199999989  1.9640081800000000  9.0854881100000000
 49.7987333499999991 17.3113317500000008  1.5527933400000000
 47.7976276500000026 34.7279623100000023 22.8625100699999990
  0.2067097200000000 24.1703158800000004 30.4990333199999988
 47.2529778700000023 30.7990777000000016 40.0988770399999979
 41.8263606900000013 25.6441536200000009  1.2899687799999999
 30.5052057099999985  0.9922850400000000 27.3346941799999996
 14.2051044199999996 45.1900192000000018  8.6527756700000005
 27.2006662500000012 11.5975903400000000 20.7008462999999985
 19.1236990599999999 12.0100896899999992  3.5773550400000000
 24.6061736099999990  5.9599202599999996 18.3798428899999990
 10.0195249799999999 48.1563759699999991 14.2109719400000003
 43.8054024200000001 37.3984948200000034  6.5024525400000002
 36.7198785699999988  0.9991345900000000 42.4551075299999994
 42.9922387000000015 20.5557826100000014 31.0382772600000010
 10.3259330699999996 47.9570461200000011 14.0741300400000000
 43.9035302200000004 36.6324621699999966 31.7916174600000012
 21.7145952000000015  7.2015794299999998 36.9454135100000016
 41.5649065699999980 31.3847364099999986 33.2647968500000033
 31.4406098000000007 22.3289304500000014 32.3341015199999973
 39.2442103400000022 27.4432268099999987 38.3130317700000020
 27.1250126499999986 40.0876825599999975  3.6808350100000000
 13.7940813200000001 37.1246662900000004  4.2662725799999999
  3.2432583600000000  9.4433262100000004 13.9835389899999996
 21.3397406600000004  7.0212838000000000  6.7168935500000000
 40.8298379900000015 27.0871512699999997  3.7514251000000001
  0.2016150400000000 38.5439664100000030  8.4434059700000006
  8.3241725599999992  4.3682362200000000 16.9461598500000008
 14.1085416400000003 22.2593049900000004 12.1388917099999993
 18.3530487899999990  9.6910204300000000 26.9803970000000000
  9.5324019500000006 11.0795403399999994 13.8345223500000003
 16.8170528600000004 44.2073586599999970 43.0770032100000009
 45.1929094500000019  7.2290930700000002 49.3672238400000012
 14.9311243600000001 47.4071621599999986 22.1745070400000017
 36.9398315600000018 47.7490443000000013 18.1875960499999998
 28.9268466500000017 23.5117236299999988 11.5389851700000001
 35.7237087500000001  8.3729548699999992 24.2524187399999995
 10.4018074299999999 23.1774355599999993 43.1594999900000005
 31.7164006299999990  7.5454304700000003 16.0499570300000016
  1.6277486000000001  7.5707207700000003 41.1039846899999972
 34.6706980299999969 10.4217941199999995  9.0938131799999997
 39.7181716500000022 43.3108658700000007 25.7227300300000010
 21.9236484800000007 20.7600552000000000 14.2477243500000004
 11.5031614999999992 33.6352518500000031  7.6777599800000003
 40.1119631899999973 11.7653375300000000 40.0278893300000007
 48.7358902599999979  4.1075580499999997 35.7282130400000000
 34.0766420699999983 26.1233487800000006  5.1228677600000001
  0.0385179000000000 47.3702641699999987  2.0298336199999998
 15.4136115799999995  6.5697525900000002 17.8317655700000017
 48.4838668000000013 18.3493363500000015 47.2960741500000026
  5.1182044199999996 21.6617342700000002 18.7677938299999987
 30.3109775699999986 36.5999707900000004 35.7090502900000004
 12.0082422199999996 22.5270176400000004 11.5854944199999998
 17.4046436900000003 19.8464497999999985  9.2818159399999995
 49.4805379100000025 19.4006025899999983 15.9276990499999993
 46.8379786499999966  5.9070969000000000 30.5776453000000004
 18.4845921900000008 20.5409413299999990 31.6009320500000008
 16.8649069599999990 48.4912393399999999 42.2595450199999974
  6.1730720100000003  0.8213250700000000  4.0103990800000000
  2.7773982600000000 29.7325984199999986 15.7817250199999997
 43.4523962600000004  4.4240098000000003  4.3327112000000003
 19.8771448699999986 25.1737723699999982 45.5922392200000033
 18.7645309199999986 25.4712168500000011 44.7415622199999987
 21.4361635799999988 27.6013480199999997 45.8561087000000001
  3.6189341700000002 23.4265979699999995 30.8321176500000007
 45.4012985099999966  9.6240357299999992  1.1685272700000000
 39.4378002899999984 31.1095019899999983  7.4000254500000002
 22.2278065600000012 32.7448830399999977 43.2492428899999979
 40.0252412299999989  4.2292848699999999 31.5908349000000008
 47.1622204399999987  5.4389263999999997 12.0359951200000008
 38.9700164999999998 19.0672601700000008 13.4416132499999996
 13.1939422600000000  0.5876200700000000 26.1305871299999986
 26.7779081300000001  6.3018623099999997 15.3997943100000008
 24.3429846900000015 32.5437556899999976 12.9018330100000007
 41.1073575899999994 41.3590471699999966 21.5057621099999992
 47.3438023599999980  7.2862261699999999  9.6032515699999994
  1.8491009700000001 27.8400440600000003  7.6205116500000001
 27.9393003899999997 25.8216849000000011 35.0580302700000033
 20.3147411899999994 29.8551915799999996 26.2049155700000007
 26.0159255800000011 49.6612651700000001  6.8837755400000002
 45.6154869399999967  9.4889724700000002 31.1602550899999997
 10.4073592700000006 16.4873230600000014  2.4386368900000002
 36.1702709200000001 13.7432877999999992 33.4380036100000027
 42.5267452599999984 47.0075379800000022  5.6908472200000002
 46.0692850399999969 36.4736486400000004 12.6126860300000008
 31.4141518300000016 27.6498905499999985 11.7104936899999998
 18.2674668300000000 21.3150936699999995 42.7793852699999988
 43.1282639000000003  6.7313770799999997 34.2545750199999972
 16.6424363900000003  9.4284555500000007 14.0523498700000005
 27.8442827199999989 28.8596465199999983 44.0789841599999974
 35.4866990800000011 24.9513568700000015  7.4549235899999999
 44.9007837099999989 47.4717771199999987  8.1579836100000005
 11.2305726400000001  2.2344321300000001  4.1007345099999997
 21.0449024199999997  1.6749756000000000  1.3148299699999999
 48.3472341000000014 21.9634605399999998 39.8813648100000009
 36.0983654599999966  5.2282175100000003 20.6516460799999990
 42.2157414500000030 19.9664730199999987 26.5120571799999993
 38.1450839099999968  4.4251957900000001 24.2656910699999990
 33.4697667000000010 26.3688709000000010 31.6132350500000001
 23.6414959799999984 42.6228758600000006 12.6745988900000004
 21.9835555099999986 27.6173732799999989 15.1927803899999994
 45.0600930900000023 24.9846178499999994 16.4721312299999987
 47.1096008999999967 21.0623306300000017 44.5909325900000013
 39.8041066199999989 37.6199631699999983 28.7209330999999999
 12.7225425899999998 27.7732296299999994 34.6703538399999971
  4.6369332800000000 32.9377071600000022 34.0442711900000035
 32.0658546599999994 30.8191968299999992 28.2410740800000006
 47.7319802600000003 31.3922511299999982  9.5647873600000004
  5.3812171800000002 42.1171833499999977 13.5005491600000003
  3.7297585799999999 36.0523929499999980 32.5683470999999969
 26.2096543699999991  5.6609723499999998 43.9623041099999980
 24.4450932899999991 48.6830059199999994 15.2804974100000006
 19.3199229099999990  9.9442659899999999 33.2785335100000026
 12.3126331800000006 38.4258127499999986 22.6348633499999998
 24.1483531499999984 11.3714577499999994 20.0903206899999986
  8.0198778300000004 40.0867603200000033 38.1807106999999988
  3.2046637699999998 10.7840590200000008 47.6799981899999992
  7.7295635599999999 10.7748034199999996 42.1211261999999991
 29.7679829500000004 10.4895243899999997 47.4364827400000024
 14.9653693299999997 22.9622706900000004 26.8834495599999990
 30.1367153999999999  7.7757607300000000 37.2105056799999971
 46.9690075800000031  8.1104450400000001 12.2498397800000003
 33.0571361300000035 41.2868913000000006  8.7820617500000004
  0.1118708400000000 30.2132119800000005 43.4537447700000001
 27.0883925400000010 24.6133950000000006 27.3296894600000009
 30.0908094900000016 36.2350611199999975  2.6722184400000000
 11.9753123800000001 19.0751411799999993 45.8978258300000022
  4.7587030600000002 29.5223115800000002 31.4908057600000006
 15.9724047700000007 48.2069941199999974 14.9502239499999998
 18.4139150299999983 32.6698765499999979 32.6152491499999968
 14.4925230900000006 25.8356554600000017 19.8612389200000017
  7.8426077999999997 10.7092919799999997 41.0703235300000031
 18.9275086500000000 14.6378466899999999 18.2893652600000003
 39.3618476500000014  4.5734998800000000 16.8124686300000015
 17.1602751699999985 12.7447383999999992  0.8182943300000000
  3.0728660799999998 45.6601578699999990 10.2733581600000008
 14.3306078499999998  4.5260610300000002 19.5077527400000008
 16.8003100299999986 12.8106432600000009  8.4812050699999997
 43.6136531399999967 14.6682920499999998 29.9844311700000006
 48.3346571900000015 10.5834011300000004 25.2227424800000009
 18.6327964600000016 11.4101366399999993 20.1665520299999983
 39.2399619500000014  6.0405208300000002 23.0335758199999994
 25.3087645999999999 14.4065987599999996 31.7053906999999988
 22.5014949299999998 32.6253258500000030 33.8516320000000022
 44.3790689100000009 29.0111444600000006 40.3048718800000003
  3.9816344899999998 19.3308295500000007 43.2523128300000010
 41.6217545200000032 36.8282869199999965 23.0182039899999999
 16.9544455700000007  3.3666517400000000 33.3157410100000035
 37.6591029300000031 36.5429220899999976 26.8915519900000000
 16.3143665599999999 45.5587835999999982  6.4759009299999999
 40.4669558100000017 28.1263311800000011 19.2480705999999984
  2.3225757499999999 35.5306925200000023 14.3491579300000005
 16.2973068499999982  8.8362239099999993 10.4152713699999993
 49.4659457799999984 24.1507562500000006  1.7602189500000001
 33.9998123199999966 34.8455975199999983 49.9575644700000012
 36.7860999399999997 13.9816285199999992 39.2304955000000035
 46.9378688400000001 34.7615239799999998 36.9335956600000017
 42.9422203700000011 29.8976768399999990 40.2546718700000028
 10.2700707599999994  9.0791801000000003 43.7799961300000007
 10.3949185699999997  7.3964766500000003 12.5830464400000004
 33.2614439700000020 25.0887945399999985 17.3698526199999996
 35.1129667299999966 43.6318285299999999 20.1420498399999985
 27.4316729399999986 44.1271143000000023 44.4100514499999974
 49.7347099500000027 41.2700833700000018 26.2912199300000005
 26.5332902900000001 45.0099128000000022 31.6045008500000009
 26.8458096399999988 47.5226791600000027 13.6685816399999993
 27.8516267299999996  2.2904900600000002 46.2664582499999995
  0.3638352700000000 14.9794413800000008  9.4712365199999997
 33.0722419700000003 45.1707882099999978 35.4374213999999981
 46.7414827300000013 34.1002493100000024 22.8901387099999987
 14.5612419400000004 30.7933156299999986 43.2557751399999972
 49.8127665600000000  3.1675783900000001 37.4900546100000014
 45.3478293900000011 10.9686205700000006 49.6058869399999978
 26.1418116900000008 15.4290172600000002 15.4930486599999995
 41.6689105999999967 29.3804400699999988 47.0563191900000035
 25.5566377799999991 30.4111304800000006 19.8700354099999998
  5.6850710199999996 48.9886528299999995  2.2881843599999998
  7.5145821799999997 47.5827337899999989 23.0068587800000017
 26.2755241599999998 12.7345574799999994 29.7076439900000011
 46.3724661800000035 32.0391450899999981 31.9115696200000016
 37.7505324999999985 23.1996547799999995 16.5978397599999994
  9.8927670699999997 17.7360953600000002 40.5547371799999965
  3.4677652200000000 32.7300401299999990 43.7845053799999988
 36.1819566200000011 10.1448504100000001  4.5007881500000000
 44.7464312899999967  3.2706371500000002 19.5986200000000004
 44.0063105199999995 14.0608587400000005 20.8527889699999989
 22.8241607399999999  5.6695912300000000 38.8197900899999979
 44.2120563399999966 22.0309815700000016 24.7072553399999997
  4.8404610000000003  3.6280939800000001 27.3755858100000005
  1.4706772100000001 17.6718020200000012  9.9765425400000005
 25.7504052100000003 37.0604263099999969 24.5849798499999999
 49.7564195699999985  6.1436359300000003  6.0891318900000000
 40.0396110399999969 45.7428225299999980 49.6182554600000003
 34.0195708600000017 16.9274455199999991 49.5769353800000019
 39.5529557199999999 16.5267921800000011 15.7962168599999995
 37.0168339900000021 41.9288132800000000 47.5647428300000001
 20.6327345300000005 24.3692764900000007 24.4299557199999988
 44.2657419499999989 24.3248758000000009 28.1876034199999985
 49.0507380800000021 45.7549099299999966  2.7712355099999999
 26.1552970999999985 42.0783230999999986 10.3763383200000003
 45.1180821000000023 49.6059035899999969 26.4216043899999988
 17.9049433799999989 28.3833171399999991 38.4111268600000031
 25.8091775599999984 24.8472304199999989  7.4016674499999997
 49.8247585299999969  4.7165440700000003 20.9561009100000000
  9.1879231000000008 21.4234857900000009 14.5257056999999996
 33.5356851499999991 34.2603116200000031 13.0574358900000007
  6.3250382500000004  4.9178010299999997  3.4819806700000000
 21.6491363800000016  7.0351564800000004 39.8749993799999984
 29.1146369100000015 29.7025262699999999 10.3591027499999999
  5.4398940700000002 28.2995817599999988 31.0706674000000014
  4.7070475500000004 11.3482567799999998 30.1516466200000011
  8.7247691599999992 37.1953116399999999 41.6027963399999976
 18.1980110800000006  3.9722041500000000 10.8351124999999993
  5.7357315000000000  0.4393218100000000 33.6816391799999977
 37.3097514399999994 14.9925222500000004 29.3213840700000006