Na Cl 
 1.0000000000000000
    50.0000000000000000    0.0000000000000000    0.0000000000000000
     0.0000000000000000   50.0000000000000000    0.0000000000000000
     0.0000000000000000    0.0000000000000000   50.0000000000000000
 Na  Cl 
 1900 1900
Cartesian
 29.5294371600000005  1.2502994900000000 13.7834609100000005
  8.6274886300000002  2.2014231700000000 49.3191579100000013
  7.0870283100000000 11.6847940300000008 36.3332779500000029
  3.4025875900000000 37.2895702699999987 25.8074614999999987
 46.0054944299999988 14.3448022500000008 43.0914053899999985
 37.2503797700000021 17.1327895800000007  0.7944668200000000
  2.6038121699999999 12.2711025700000000 40.4208960699999977
  4.0001904799999997 31.2014702600000007  3.1106934200000000
 31.4243077399999997 48.3402648699999986  4.8316702999999999
  5.8826777400000001 20.1647979299999989  9.7588115900000005
 16.3463643400000009 33.3453993500000010 36.1268221600000032
 33.4999908599999969 34.3464114200000026 10.1366765799999996
 17.1233545800000009 42.2204860699999998 49.7093494000000007
 15.0354478999999994  0.7729291000000000 40.6193638199999967
 39.6476836599999984  8.6192636100000009 13.9634803000000005
 34.2134063499999996 24.7205652200000010 28.5396169499999992
 15.3421430700000005  5.3985558899999999 33.5289121799999990
 20.4269447000000000 15.6595617600000008 40.2545098200000027
  7.5464942500000003 33.9289062799999996 43.1278722599999966
  0.1490092100000000  4.3978572099999997 14.7862042599999999
 11.7350013299999993 30.1673243699999993 22.2206214799999984
 11.9851793200000003 34.9088620599999970 13.2445701899999992
  1.4912258400000000 13.0326507399999993 39.7610559499999994
 14.0674293099999996 31.2844244899999993 47.3224184500000007
 47.8868275900000029 33.9112563400000013 46.4853895299999991
 29.9419081899999995 33.6509649799999977 21.7684163599999998
 11.7737297499999993 31.0758900699999998 42.4844746200000003
 36.5649552699999987 47.2032572399999992 45.1443697999999998
 41.4232315699999987  0.2529776700000000  1.7956262700000001
 29.0907124699999997 27.6044136000000009 47.3794454499999986
  6.3396170800000000 49.9442045300000004 12.2456092900000009
 11.9553540399999996 33.6353894499999981  9.9904520899999998
  9.5283595000000005 43.1380461600000018 21.1418727000000004
 31.4545455499999989  6.5471180000000002 37.4123044299999989
 38.6004766599999982  8.2112734900000000  6.8736182799999996
 24.9024161500000005 34.9082102500000033  2.2896098199999999
 31.4722724400000011  4.4829082500000004 44.2388961099999989
 23.1268616300000005 43.1633617500000000 46.6208722200000025
  6.9993911600000001 38.7671865499999981 10.1042963599999993
 22.9089417600000012 30.5841628599999993 28.0251955700000011
 19.4620189299999993 48.1522365000000008 44.6388537300000010
 45.2145931499999989 21.6671081799999996  9.0872256399999998
 29.0012649600000003 24.2602303500000005 41.6914996699999989
  9.0348736200000008 49.1209183300000021 25.2744560699999994
 37.7831908400000032 22.0883666400000003 39.1781314699999967
 16.8556018799999983 42.1008156099999979 38.4079741999999982
 22.8223097599999996 24.5601647400000012 32.6888104100000021
  0.8365972000000000 10.6890924599999995  1.5769038399999999
  3.0227661600000002  3.6308722100000002 24.0692700799999990
 32.2222969600000013 10.1450820299999993  8.3936242199999995
 21.6422537000000013 41.3578969599999979  2.1742387200000000
 42.4301993300000007 24.3601383300000016 20.8448940500000006
 40.1343310399999993 37.7018543599999987  5.0662310599999998
 48.1453997999999999 29.7344481700000003 46.8704116299999995
  1.0082373600000001 45.4453651299999990  0.2517507200000000
 31.1743172299999998 46.7496234400000006 20.9212280200000009
 23.0793469500000015 44.5841216199999977 25.3321079699999991
  6.7385765500000003  5.2561135500000002 39.5004708499999992
 34.4135824099999965 39.0794853399999980  8.9101029100000009
  2.0996685400000001 39.1291222700000034 43.1580209400000001
  6.8578952700000002 10.6458407400000006 24.6453350499999999
 14.1462267399999995  5.6328903700000001 21.9884100899999986
  9.2084467700000001 16.3648411200000012 43.8847746400000034
 21.4074395899999992 44.8372387100000012 29.4709491899999989
 18.2430590799999983 11.0939923500000006  6.7294141800000000
  1.2640806899999999 45.4040765000000022  6.3138068199999999
 16.1512529600000008  4.1084192000000002  0.2015177200000000
 36.9082552300000017 17.0456840499999984 36.8118338000000023
 46.4906642199999993 18.5935406999999984  1.6385990699999999
 39.9345161600000012 29.4130662399999991 45.4042289400000030
  8.8757687999999995 25.0462016200000015  1.5106397499999999
 39.3222028599999973 38.2634221100000005 43.3353285499999998
 36.8669516100000010 22.8557310600000001 36.2719913199999979
 23.3580852999999991 29.3395824599999990 10.3624626800000001
 11.9102788200000003 26.0561499599999991 25.7124334499999989
 48.8689280099999976 40.0730805399999994  8.2646783199999998
  4.4486031700000002 17.6734033100000012 36.8894698300000030
  1.3193825299999999 24.8621244799999985  7.7261316200000003
  3.0940706599999999  2.0456216500000002 30.7631394500000006
 36.0847419799999969 26.2583931799999988 24.8141719800000011
  1.7885391100000001  9.9768942000000003 31.6608792799999996
 24.3980320299999995  7.7243015399999999 22.3360481499999999
  1.9613296000000000 14.0666468600000005 18.1337762200000014
 24.3770014800000006  4.2639432700000004 14.0945853700000008
 37.6963658700000011 12.8211210999999992 34.5823397799999981
 25.3846625199999991 40.0230024900000032 16.6028407000000016
 43.9436684100000008 11.2349694899999992 26.1321846300000011
  3.6270505100000001  9.8378662499999994 45.0181165899999982
 19.4855612799999989 43.8284218699999997 24.2864501500000003
 32.3677430099999981  4.6567356200000001 15.7556251899999999
  4.7926169600000001 49.5132628799999992 19.4092678899999989
 11.5654740500000006 30.9224195699999989 13.1056954000000001
 17.4225560000000002 20.8987002799999999 44.4556462299999993
 16.0462209300000005 38.8352227600000006  3.5888905200000001
 18.4829495000000001 42.9322498100000018 12.3225888099999992
  5.7500656499999998 41.3533595800000029 25.9144879800000005
 44.7994217299999988 43.8809360300000009  6.8919385599999998
 32.8113487399999997 10.3382327600000004  4.6780679200000002
 24.2874707399999998 49.5207965099999967 46.0270089999999996
 25.9402800499999984 28.2867535799999992 15.4674991300000002
 12.2579431700000008 19.2508313400000013 48.7223798599999967
 27.0383674999999997 33.8425895100000034 42.4019348100000002
 49.3183075700000018 42.7952954000000005 10.5298657999999996
 25.4544175999999993 12.3966821800000009  1.0373319000000001
 34.4373077799999976 37.8318251500000002 39.4853290100000009
 29.9247071499999997 44.5531022199999995  3.9890853499999999
 44.5574335299999973 26.7852763799999991 30.1400683700000016
 14.1291412600000008 18.4771411400000005 45.3112068100000016
 45.4528532400000032 26.1044642300000014 37.7303322300000019
 33.6937129000000013 40.2326362399999979 39.9172770699999973
 39.6757891099999966 30.9876066299999984  8.7046492400000002
 49.0398097799999988 12.0829369199999999 27.9208658400000012
 15.9921612900000003 30.2547974199999992 42.3802164299999973
 34.2976192599999976 40.0869663499999973 41.6434877700000001
  2.0990277200000000 28.3588642200000010 27.4308677199999984
 30.5937565800000009 39.2667942900000000  7.0115702999999998
 43.4619613400000020 15.1842868000000006  2.3082917599999999
 45.4595547099999990 38.7360921499999975 37.5008369700000017
 26.5670182799999992 11.8761861799999995  3.0610468300000000
 47.0139925599999984 14.1729341699999996  4.5045162799999998
  7.4051262099999997  7.9562901600000000 21.3686456500000013
 42.8275028400000011  1.8403042999999999 29.9944502899999996
 16.7260355400000016 14.4793106799999993  3.7745585899999998
 39.0062482000000017 28.0135731300000010 24.1236685900000012
 46.4979712100000029 41.4021878900000004 46.5719157799999977
 34.1885378500000030  6.7556628300000003 42.4251676000000018
 39.7919139799999968 32.6982236599999965  9.0450865000000000
 20.7688489300000008 12.0440119899999996 23.7095723000000014
 36.7817117299999978 40.2290551600000015 29.7301495600000010
 24.6236317199999988 49.3783301699999981  1.5951183400000000
  9.1539389700000005  0.2523180100000000 40.7087915800000033
 42.6600288599999971 37.1049921199999986 23.6025626899999992
 38.2710989999999995 22.3608521600000003 18.8422798500000006
 32.1974383800000012 42.3468812999999997 24.0340623200000003
 40.4853873599999972 37.9053747000000030 25.6325699299999989
  6.6027723500000004 22.7949139299999999 14.1184258299999996
 38.3829928400000000  2.9606867800000001 10.2627588900000006
 36.1887473499999999 24.2767933199999995 20.0652799399999999
 37.1600014599999966 48.1444768100000005 14.2218016600000006
 25.8205330599999989 15.6991145900000006  5.0188796599999996
  2.3104760600000001 32.1710963199999966 49.6158247099999983
 43.1659233299999983 39.6733382000000034 39.7950773100000035
 35.8643153200000029 21.5475006600000007 48.8435842299999976
 14.1201943700000001 18.1067606499999982 20.3262757100000009
 23.7159234099999985 43.5247794200000016 20.9677609899999986
  5.1590353999999996  7.9079224500000000  8.4526710000000005
 14.0415285300000008 45.9700267300000007 18.2392133299999983
 46.4583565499999978 25.5984762100000012 33.5896685599999998
 41.5595603100000019 41.5301909399999971 47.9191251600000001
 26.7364886199999994 10.1643173299999994 31.6813724000000008
 18.8259775400000002  8.2044683000000003 42.4986666000000000
 25.0896025099999989 30.9493859200000010 16.3291739400000004
 44.4263691299999977 23.9859502199999994 31.8653067999999990
 10.2113121699999994 21.5236452000000007 47.9049481699999973
 38.4638504799999978 11.9349668599999994 40.9879429499999972
 34.3570879099999971 39.5765404200000006 12.9147858400000004
  8.8056449099999998 46.4740374799999998 39.1479391600000000
  9.4133850199999998 10.7620830699999992 28.3301537299999993
 44.8937231199999971 28.8044532199999992 16.4452628499999989
 45.5327904500000002 19.6091428299999997 20.8634724899999995
  2.3822027499999998 37.6816234499999965 15.0453140800000007
 16.5937364599999988 40.9287577500000026 39.6314248199999994
 35.3568850899999987 43.1677887700000014 21.0257734499999991
 30.1743788299999984 40.7850286199999985 23.9759859999999989
 14.3966573800000006 14.6206247000000005 28.8393158800000009
  2.3820502000000001 35.1177048799999980 23.2659183799999987
 30.2901853699999997 37.1455396200000010  5.0844485900000000
  4.3274440099999998 31.3515169000000000 24.9445273900000011
 42.6718267600000019 35.3923184000000006 38.6954003199999974
  3.5931679200000000 40.3732382900000033  3.0159070899999998
 38.3504096099999998  5.3343682799999996  4.7276946700000000
  8.3643826000000008 30.1783523199999983  7.5674375100000004
 35.9222116299999996 44.6109476000000029 26.1963274900000016
 31.6761539200000009 31.1189877899999985 16.8278630900000010
 25.8949557400000003 16.5211891800000004 21.6266027100000002
 28.3116695599999986 34.2302998700000032  8.6498937100000006
 28.7636582199999999 30.8036616899999984 17.1420473499999986
  6.3897314300000003 42.2161076399999970 26.1211298099999993
 17.8286529700000003 46.1704580800000031 36.8889403900000019
 42.4211919999999978 22.9738951100000008 22.2550619699999999
 40.8265803000000034 22.3350458900000000 35.1162437300000008
 48.7083369200000007 41.0185497399999974 48.7655560500000007
  2.7004991899999999 37.2898921099999967 31.2166566199999984
  8.3477695700000005  0.9632373500000000 39.1300842799999984
  9.3265171900000006  0.7744202400000000 15.6809634599999992
 49.9528757100000007  7.9819965399999999  3.4159255700000002
 11.4610476000000006 25.8270250300000015 24.8096589799999983
 25.9384988000000014 48.3493258900000029  7.1202938900000001
 20.7794827300000016 40.7661977599999972  7.4858308300000003
 14.3588252900000004 28.7766458599999986 49.0869701100000029
  4.7067013600000003  5.5297425499999999 38.3830515800000001
  3.9479832600000000  3.7547331599999998  5.8001422600000003
 32.9909354600000029 28.6522794900000015  8.8613567399999997
 32.8228122700000000  3.0058346000000000 19.0621293499999993
 27.2079375200000015 33.8059550099999981 26.6858124299999986
  8.4495083900000001 10.8875677500000005 37.3511841899999979
 11.3527274299999998  5.2898786500000003  6.9905058499999999
 39.4318433899999974 30.9918471999999987 29.9758722199999994
  4.4844249300000003 19.7297721000000017 48.2797333299999991
 37.4780170800000008 43.0330534900000004  6.5300044599999998
 49.7850164500000005 36.7715377500000002 19.2350177199999983
 32.9427930000000018 19.5219196500000010  4.9035072800000004
 13.2468804299999992 40.3194090100000011 48.3071866200000031
 48.8855299499999987 19.1019279299999987 46.1026737400000002
 47.6376293699999991 45.6367909000000012 17.5445834500000011
 21.8140261299999985 28.3372498200000003 14.1578076700000004
  0.2735198900000000 47.0488624199999990  0.2306389200000000
 26.3482575200000007 35.1641296800000021  3.5275412500000001
 37.3858005399999982 43.1497567500000017 17.9617547500000008
 33.2121063399999983 45.8712753599999985  8.5249549099999999
 28.9170891200000000  9.5168082100000007 48.9955650400000025
 18.4616356900000014 34.7111111199999982 39.6445985399999969
  6.7676106699999998 43.2325847899999971 10.0525337100000005
  2.9340393900000001 12.3999519800000009  5.9929228900000000
 23.0549808700000014 35.0634803499999990 11.9141756799999996
 41.5507297899999983 43.1156201300000035 44.2274510399999983
 30.7695753299999986 44.2526001900000026  3.4514304700000000
  8.1919634299999995 32.3293465100000006  9.3268059200000000
  5.6271604999999996 25.6865016299999986 13.0329027400000008
 43.9962956800000029 45.7414829900000015 27.1045303299999993
 45.8413088200000018  4.8773531800000001 23.6749377900000013
  4.6794539999999998 47.5834414799999976 34.9009834599999991
 30.8290547400000001 43.9229633899999996 13.2456346499999995
 19.3815233300000003 45.2625672100000003 27.9670615799999993
 42.4039931200000026 33.9124249699999964 16.1264458300000015
 37.1750322800000035  0.7675456400000000  0.1394914500000000
 44.4327393299999969 31.0498990500000005  5.6533265000000004
 15.4584080099999994  9.4633447999999998  0.4360229000000000
 28.2369001200000014 27.5803194000000005 42.4282298600000018
 41.2592921800000028 44.9237213400000002 32.9846393699999965
 22.8338973199999984 19.3123200299999986 32.1627437799999996
  9.2346306200000008  6.4368887600000004 34.7893919999999994
  5.3112729900000000 16.5652151100000005 11.5702930199999994
 11.9147758100000001  1.6369631800000000 12.4400896299999992
 30.5864298900000016 16.1270916799999995 48.0298151300000029
 37.1028108000000003 36.9411098499999966 19.2332105599999998
  2.5698278600000002 41.0968042399999973 13.9888666900000000
 10.8824053099999993  0.5860979900000000  0.5489252500000000
 25.7866939600000009 46.9654695099999984 48.6460827300000034
 44.7124174100000005 31.5993643700000000 40.5170435300000022
 19.9505659599999987  9.1621093299999998 37.5714451199999999
 13.2782151299999995 16.9616662500000004 24.7246813799999998
 47.7200253900000035 30.4666557699999991  3.0835666700000002
 25.5050363100000013 13.1453258300000009 33.4911902799999979
 36.4350761500000004 14.3247800699999992  6.5786584299999999
 17.5122516099999999 28.4127730800000009 33.4771146900000005
 49.8666298999999995  8.4487977700000005 48.9441369399999999
  4.1095883100000004 19.8507916999999985 32.2560568700000019
 27.5478530100000008 46.7655474100000035 38.5552730799999992
 48.4746953200000021 14.2042979700000007 31.6359215999999996
  4.9343799300000004 32.1234227799999985 48.3666187099999973
 47.7607340300000018 14.6568567600000002 37.7914986299999995
 11.7174466400000004 35.1257254799999998  8.0680851400000009
  0.3069420800000000  8.7755591000000006 40.8217112700000015
 40.5013549600000005  6.2727505600000004 26.1186673200000001
 26.4416383699999997  4.6160887900000001 32.6043747300000035
 31.7260610099999987 19.9073739399999994 33.2338810800000033
 11.8393456599999993 33.8825386899999970 13.8277188500000001
  2.4706674300000002 24.5074717399999997 47.0776048900000035
 33.3054550800000015 14.7836063099999997 18.0712959099999999
 24.2703842300000012 12.3478292799999991 29.9666718000000003
 49.8529776900000030 28.9960864600000008 37.2251344100000026
 42.8340065499999980 11.1480732000000007 15.6663306400000000
  4.0190046900000000 47.4118327199999996  0.6725993900000000
  4.3780181100000002 31.3503943800000009  6.0782816500000001
  7.6797288400000001 23.2026350599999986 16.6873856499999995
 14.8906621500000007 17.3586757899999995 47.2640604500000023
 17.0639268400000006 43.4184585400000032 34.0327397100000013
 38.2563855399999966 25.0718453100000005 32.5040990399999998
 46.3925741400000007 19.9935092700000006 30.9102737500000018
  8.9708973200000006 23.8713072000000004  5.0601533400000003
 45.9971935000000016 24.8311611899999996 37.3261864899999978
 41.2163988900000007 24.0161089799999985 38.7436337500000008
 14.2524090000000001 40.2380015199999974 30.0915297300000013
 48.3401064500000004  2.1691394700000002  6.7271514400000001
 13.2341871799999993 26.9839312299999996 18.9321967200000003
 43.4302105299999965 31.5483859899999999 33.7233122600000002
 37.7091458000000017 27.6134775099999992 49.7165925299999998
 36.7707085500000019  5.2986019799999999  3.6034464599999998
 13.1246869499999992 36.6135912000000019 14.6272205799999995
 39.6963145799999992 25.9590934900000008 44.4842025399999983
 45.9920546700000017 38.4628719099999969 45.4882431799999978
 20.9030494900000008 17.5527611599999993  9.2568098800000005
 29.2037260399999994 27.0235357500000006 34.5652935499999998
 38.8886762300000015  1.9813396700000001  0.3759082200000000
 17.8894126600000014 17.3586409199999991 46.6778653900000009
 14.8835949200000002 48.5798261400000015 31.1378586499999983
 33.9903033699999995 25.0287893299999986  8.8623445800000002
 49.4252807000000018 40.6927121100000022 22.4123677800000003
 34.6652933299999972 19.5850393099999991 15.7557295199999992
  6.5461149900000004 20.5546963600000012 12.7817056900000008
 22.1275314999999999 47.4219617700000029 20.9113922099999989
  7.7688188599999997 20.5385146300000017 40.8153739199999990
 33.9895564799999974 12.4756843600000007 28.8270523400000016
 46.2687459799999985 38.8136134900000016 40.4019205299999982
 35.0783823900000016 12.3728620899999999  0.6931085800000000
 49.0759733599999990 19.8842520699999987 44.6245158300000000
  4.2375531100000003 20.5550648400000000 18.9747116799999986
  7.9792891900000003  7.9134146999999997  0.7607832300000000
 36.4837831099999974 32.9426560499999965 17.2201844500000014
 19.6400143800000002 39.7216228699999974  1.3156103200000000
 11.4626637000000002  2.9888308600000002 33.2802992499999988
 41.9894427699999966 16.5646728199999984  2.4560947000000000
 29.5835936799999999 11.4590009500000001 41.4289581800000022
 46.5001015400000028 27.2066532999999993 12.2220025499999991
 15.1967818000000001 12.3116928199999993 22.6212426700000009
 45.2254870399999973  4.7607125000000003 13.2950515300000003
 49.9310905600000012 41.8390068900000003 38.1887767899999986
 38.7714668099999997 32.0427173200000013 41.9499961200000016
  3.5847151700000000 48.3078095400000009  9.3548641099999994
 27.2011270399999994 19.3421740399999997 33.9191033700000020
 28.3702771499999997 19.2481345399999988  3.3971362500000000
 45.6690045799999993  8.9598953100000003 38.9604199400000013
  7.7779205999999999 23.5115542200000007  8.6917520300000000
 32.2763822699999992 19.1567403100000000 17.3344249899999987
 39.6808368800000011 15.8254494000000001 28.3281211599999985
 10.7324039399999993 29.5129871100000010 24.7744137500000008
 33.5719577899999990 43.8945624500000022 35.9110690099999985
  7.3368881400000001 11.0789649200000007  4.1634778499999996
 25.5722443499999983 42.7107222599999972 39.1089854000000017
  4.7176392299999996 39.3625474500000010 16.3349675999999988
 41.8004901799999971 40.8384698599999965 22.1629929600000004
 43.4226773399999999  4.9380799299999998 44.3094049999999982
  8.1698678699999991 10.9692991099999997 11.0100809099999992
 46.4298045000000030 45.7242537500000026 37.5327809200000004
 13.4489057400000007 35.7587980500000029 48.1188361299999983
 33.2788224499999998 17.1688952999999991  7.6233555800000001
 25.7372853699999986 16.5552116500000004 43.4422720000000027
 34.2654372699999996 49.2042389200000017 25.6435771099999990
 41.6005323099999984 30.1465950599999992 23.8231414800000003
 45.5388663499999993 21.7268262900000018 12.7693857099999999
 15.0656713199999999  8.7379474199999994  8.6823443200000003
 24.1610267500000013 24.3766627400000004 48.5706509500000010
 26.9306006300000007 22.6047350899999984 17.7826533900000001
 23.0554842999999998 43.5245681500000003 17.4169372600000010
 26.4645548400000017 39.7732425700000007 18.8878173300000007
 47.5459146299999986  4.1871896700000004 24.0968368099999992
 45.5363133899999966 28.8191481399999994 13.4227802100000009
 46.6670031600000002 32.3221837099999973 38.9415939800000004
 41.3699423199999998  4.6204976300000000  6.7036562399999999
 18.3504216900000010 15.5373842999999994 36.8179191099999983
 48.7664403400000026 17.5627744099999994 27.5495759800000002
 25.7235049899999986 34.9482921999999974 25.9470830600000006
 42.6249213199999986 47.0527085000000014 14.8717531800000007
 49.5556471900000020 31.7622673400000011 28.4271497900000014
 25.1064826200000013 14.6533149799999993 28.2649166799999989
 48.4546085300000016 26.6056422700000006 11.0296885800000002
 25.9759088600000005 27.1002662699999988 24.1752455099999999
 13.3513262099999999 45.7395978699999972 45.4214309799999967
 47.9904582500000032 25.6317771400000005 43.2783786899999967
 29.7106001900000010 46.0573887899999974 36.5333931699999965
 16.7389925599999998 32.2480353199999996 42.7296421899999999
  7.0963250000000002 17.9343431100000004 22.5046621999999985
 35.8575503300000022  7.8483559700000001  7.3187767600000004
  6.6809415799999998 36.5852163599999969 37.7313229399999983
  0.3447048100000000 43.4538002299999988 28.0205131200000004
 40.7639628499999986 19.9235628899999995  5.3215215699999998
 38.8130369100000010 30.7113101200000003 14.9891035200000005
 21.8629202000000014  0.0997609700000000 26.6826096100000001
  4.6197406299999999 43.9807190499999976 33.9451267500000000
 15.7453579399999999 32.2309577500000017  5.7069412499999999
 16.5615201499999998 49.4692269000000024 29.2965279999999986
 36.7461439200000015 42.4407968499999981  2.4726499300000002
  7.8274562300000001  6.0568456099999999 47.4041682200000025
 21.8552572100000013 21.3078544799999996 21.1102574499999989
  0.0969008300000000 28.6122669800000011 36.3711864899999995
 40.5312649399999998  8.9698397399999994  6.0964486600000001
 13.0126119899999999  2.9696902500000002 11.5840432500000006
 43.0149378500000026  2.0603698499999998 28.6359934500000008
 35.1419182699999979 30.2202931700000015 12.4673855099999997
 39.3482386299999973 25.8466843200000014  5.2233163800000000
 38.2783269899999965 43.8417558100000022 48.3898380799999970
 38.0085496900000024  9.6945970799999994 37.0931740099999985
 24.9755719800000016 14.4382559500000003 13.7677999700000004
 45.4141682500000030 25.9257074600000017 33.3652234300000003
 19.3102316300000005 47.0630429200000009 38.5623661500000026
 17.6879084800000008 30.6777417099999994  0.8049269000000000
 28.4063708900000016 25.8754942899999989 39.4325647699999990
 43.1160671399999984  1.7403742099999999  0.4693033600000000
 37.5816413100000020 34.6455703900000032 38.1015172399999997
 22.2002621600000012 19.8061410199999983 31.8121182400000002
 16.2712844899999993 21.4783611299999997 36.8155820699999978
  9.4878496200000004 12.2885308999999996 33.3388096600000026
 25.3739141699999990  9.3755298800000002 24.5306989500000014
 37.4572948699999984 44.7549256200000016 46.0349606799999975
  9.5841441599999992 30.7108651100000003  7.5098337400000004
 17.7756811799999994  5.8736052900000004 17.6840369700000011
 15.6093076899999996 45.6343046100000009 25.7576413799999990
  8.6786827300000002 12.6207199899999996 16.4409353899999999
 22.8011669700000006 19.2132601600000008 17.2635157200000009
 47.9087183500000009  1.8292665500000000 44.4828891900000016
 23.9185628100000010 49.2851929300000009 36.2375242999999969
 44.0709725899999967  0.8363638799999999  6.7676901400000000
 44.5681547000000009  6.9760803400000002 46.9822719699999993
 31.0449647199999994 22.7219872699999996 38.4401277600000029
 13.2272373499999993 10.1781092599999994 13.4823858100000002
 48.4583124299999994 38.8569746800000004 19.1734687299999997
 48.4889142700000022  3.1820919800000000 31.4199837799999990
 25.6673391600000009 40.9691987100000006 19.3226374300000003
  5.5673029500000002 19.6607352800000008 37.9778368999999998
 43.5048473000000016 35.9686338500000033 24.8291341199999991
  3.2572184700000002 44.0708328699999967 48.4880617800000024
 38.8543577800000008 25.1912300800000004 39.0039967100000027
 40.1726864500000005 32.3411069699999985  6.9848921199999996
 45.0818314200000003 40.3406660699999975  5.5746822199999997
 43.6840349799999998 47.5758734400000023  7.7048736699999996
 45.8117049600000001  7.3253191600000003 16.6390817700000007
  3.0472914000000002 15.8265665000000002 47.1031897000000015
 13.3092699900000007 38.9006668899999966  3.5083915100000000
 15.5361477099999998 16.0346042199999985 43.5931367499999993
 19.8494193900000013  9.1917466599999997 35.6861950999999991
 27.8810386399999999 46.6164946800000024 33.4260416600000028
 41.4821890799999977 41.1519375100000033 40.6137689899999970
 45.6154222799999971  8.4022810999999997 17.1383714199999986
 44.6083724900000007 32.9165054899999987 27.7077222100000000
 33.6872492600000015 31.5983264199999994 23.0720664500000012
 22.2207948399999999 14.8989366000000008  6.4273877600000002
 25.1060234000000015  6.9353409399999997 12.2751392900000003
  8.2661259000000005 28.7780459600000000 22.6185145699999985
 49.3743114199999980 34.0519863600000008 11.7347058200000003
 25.2007104300000009 48.3402658199999991  4.8477143500000004
 25.5351434300000015 19.1557084300000007 49.9915820299999965
  8.5192010299999996 32.2117313199999984 32.5682854000000006
 25.1726604400000014 26.9040433800000010 26.2571132600000006
  3.3026134400000000  7.0240488100000000  3.1883089400000002
 35.9082744899999966 10.3692809399999994 26.5047601499999992
 15.5039210199999999 24.4005453400000007 49.9655643500000011
 21.2399932699999994 30.5668128599999989 36.4236772900000005
 22.7442609299999994 12.7933700899999998 18.1710377200000011
  0.6309387500000000  4.1875878100000001 30.7883825299999998
 10.3451757999999998 21.3696248900000008  9.2855747599999994
 12.6549905700000007 42.4264942300000030 12.0884573599999996
 20.7028647300000017  3.0474879300000000 19.1296856499999990
 12.6266755199999992 16.5355023999999986 12.1888451799999995
  7.9209413199999998 27.2607374799999995 21.2148775399999998
  8.4468910299999997 16.8975027400000002 46.3284784900000020
 42.7379996900000023 47.5608699200000018  5.5408213999999996
 24.5852897800000001  4.9652596300000003  1.1185346199999999
 49.2113187900000000 44.6349127000000010 28.9776822000000003
 27.9047161199999998 44.5638924100000011 35.3397572299999965
  5.2998399400000000 24.4098491399999986  6.3344655599999999
 13.3626466900000000 36.0029390699999965  1.3969748300000000
 28.9559467099999992 12.5964087500000002  7.8418491000000001
 47.9577885499999965 26.5521018700000013 11.1760562799999992
 35.9779038200000016 30.6294496100000018 39.1595633000000021
  4.7803016200000004 42.5292750799999979 39.5262455800000012
 17.6093820100000009 10.8834401100000004 17.9778557600000006
  3.8217370000000002 31.9336757700000007  9.2886298000000007
 14.0010600499999995 15.8162756899999994 24.1455162100000003
 13.6908683100000008  2.4236160800000000 33.7154690300000013
  5.8880430900000000 10.3402245399999995 38.1537971500000026
  0.8686955100000000  0.1654213300000000 30.2362851699999986
 31.2448631200000015 32.4144347300000035 39.4044333599999987
 20.3114040299999985 23.7675162799999988 10.6461875700000004
 30.4744148800000012 33.4908357699999968 30.4768612300000008
 24.6066666800000000 14.2468713499999993 47.1668182900000019
 32.7149311900000015 39.8485631200000014 34.8003058199999984
 38.7398459200000005  0.5903735300000000 22.4079085599999992
  9.7191986700000008  0.5720015400000000 13.6298576699999998
 27.0178028499999989 38.2125136900000015 37.7175092599999999
 18.1781999600000006 21.0067590600000003 10.5994602199999992
 45.1279998999999989 16.2942639900000010  7.6948139900000001
 26.7386498500000016 46.4880623399999990 24.8637024699999998
 34.2473491300000035 45.1967514099999974 21.8009439600000015
  8.4651884400000004 24.4221605900000007 13.2531031800000001
 44.9051380100000017 20.6545907900000003 41.7073527299999967
 25.4773539599999985 47.8880219199999999  3.9843282200000001
 14.6044191300000001  6.4722740099999996 29.5093222399999995
 13.1789310900000007 48.2948240400000017 41.1075569899999991
 44.7102984899999996 45.9866450099999966 47.5427662700000013
  1.2727157899999999 40.5343114599999979 10.1726866600000001
 22.3447071000000008 47.4922746599999996  2.6602796299999998
 11.3197267600000000  0.6476114300000000 34.4052606899999986
 49.2163968999999994 29.9826434299999995 18.2880516499999999
 17.2840512900000007 43.0500374100000016 41.9788225499999967
 38.0706257100000016  3.0063605400000002 27.9016221100000017
 42.5627558199999996  2.2371081899999998 49.0773133699999988
 42.4058035700000033 14.3405660099999999 21.8929676399999984
  5.1071943500000003 36.6154508099999987 45.8818262200000007
 35.8532643100000001 35.8132793500000020 13.7860388300000007
  1.9546601699999999  1.9734731400000001 18.1630957299999984
 17.1498631199999991 37.7494696700000034  5.3367495800000002
 44.7501817899999992 16.3053891200000010 44.6749932800000025
  2.6120676399999998  1.0208899899999999  8.0979921899999994
  2.9547251299999999 10.0652751299999998 17.0791550600000015
 49.3591252900000015 28.8188233899999986  7.9646702899999999
 12.2135521199999992 23.1704848900000009 26.3395905600000013