Na Cl 
 1.0000000000000000
    50.0000000000000000    0.0000000000000000    0.0000000000000000
     0.0000000000000000   50.0000000000000000    0.0000000000000000
     0.0000000000000000    0.0000000000000000   50.0000000000000000
 2000 2000
Cartesian
 48.9715521899999970 14.8776868199999992 49.2823748400000028
 38.8739028199999979  3.6846877800000000 28.5475039799999983
 47.8993158099999974 43.8007837400000000  9.7722599999999993
 42.3738651399999995 27.5514210199999994  6.7331452699999996
 13.9724730600000004 35.3546842200000029  6.1776284199999996
 27.4007830000000006 24.9598223399999988 49.7340122199999968
 29.5434429899999991 36.6463556100000005 15.2987793599999993
 26.5847453000000016  9.8143243299999998 49.3489749499999988
  8.2219741800000001 36.7200619899999978  4.0819414399999996
  5.1898571200000001 25.9286513200000002 32.8427472500000022
 38.0530939100000012  8.3494276999999997 28.8313730100000001
 18.8861044699999994 18.7577892599999991 12.1641732600000001
 43.2599407100000022 19.8235527699999992 24.4514130899999991
  4.8997502800000001  0.1029506100000000 30.2908911299999986
 49.0071848700000032 13.7561583699999996 49.7537627999999970
 11.4914600799999995 36.9695492700000017 47.2146256099999988
 36.2126530800000026 26.0602859400000000 45.2258538900000033
 10.9263262099999992 38.7645507200000026 15.8039158099999995
 16.4129361799999991  2.2184100899999999 34.8184560799999971
 43.7913710899999984  1.5739449800000000  3.2932332500000001
 49.3712317199999973 32.2915106199999968 23.4190421800000017
  3.8418413600000001 19.8277768999999999 45.4463652299999978
 17.0604439799999987 34.8819123000000033 10.3001017200000007
 13.8095600100000002 47.2751370599999987  3.2285984600000002
 13.0543518200000008  4.4909946400000003 30.1469288400000011
 29.4330829700000010 31.8254073800000015 39.6217756899999998
 23.1839484400000018  2.6214483700000000  8.6827074000000000
 30.2632468699999997 34.3900779700000001 44.0403664199999980
 36.4384613400000035 21.2197453600000010 40.2602333999999971
  3.7427467299999999  4.3443103799999996 14.8245680699999998
  6.5155199100000001  6.3430614099999998  7.8331187199999999
  1.2262784400000000 10.0617679300000002  8.1336810300000000
  2.7770568199999999 23.9939131699999990 15.6985690400000006
 45.8498967600000000 49.2147769299999993  2.7558787300000001
 18.0537697900000005 29.7089330999999994 18.0385955200000012
 24.6749512300000013 11.9052682399999998 41.8432427799999971
  9.3813447599999993 22.2613111199999985 45.8560644399999973
  2.8750377700000000 20.7598349599999992 10.5462430099999995
  0.7062591800000000 20.0981197000000016 39.0978667799999968
 17.8470291000000003  5.0181636599999999 40.2766506800000030
 29.6680473900000017 30.8724176300000011 22.7230778300000011
  6.7690932500000001 18.1501792399999999  0.0624239200000000
 49.1588439300000033 12.6899698599999997 30.3233957499999995
 45.3124122400000005 15.7125840300000004 31.3997410399999985
 35.4476324000000034 18.3577165300000011 38.1417632499999968
 48.6149652900000007 21.7215527399999999 24.1369277999999987
 19.3456181899999997 41.8048870000000008 14.7358310499999998
 15.1124195500000003 44.4353750599999984 25.3487143300000000
 35.8417744400000018 42.7030963300000010 10.9400579100000002
 19.5532232599999993 31.0233543800000007  9.5170166399999996
  2.4986479199999998 44.7756085799999966 43.6533256199999968
 31.4436474699999984 23.3830763600000004 49.3643852399999972
 17.2227513099999996 12.7813096500000007 15.4712044500000001
 24.5331459999999986 28.5848653299999995 25.8316179599999991
  2.0030955800000001 16.0274018799999993 22.5434660600000001
 38.0339878600000034 37.2338883099999975 39.9607482999999988
 20.2967083600000002 26.7774767400000009 49.0515138299999975
  8.7928584799999996 31.5725032200000015 39.0615418000000005
  7.3330943700000004 47.3171432500000009  9.2265860699999998
 21.2320552999999990 47.1534353199999998  7.7874265899999999
 33.2786649600000004 14.5220172200000004 21.5434055600000001
 30.0173190100000014  1.0805951400000000 11.5625792000000001
 32.2686211099999980 38.7150351800000010 33.5963322500000032
  3.5560783699999998 17.0091878700000017 23.4205344099999984
 28.9218329700000005 39.2467710800000020 20.4816053300000007
 34.3406992700000018 14.1325614700000006 25.9606494000000012
 20.6344501399999984  3.2035774300000002 42.5259221800000020
 33.1740390000000005  6.0734147700000003 25.8820392099999985
 49.4329673499999984 19.8821981500000007 10.1043576200000000
 23.9385006400000009 34.3801930899999988 27.9053303300000017
  4.8868734600000003 33.6823180700000009 48.7198151899999985
 33.9338561699999985 26.3206122100000002 20.5294134399999990
 37.8517259799999977 23.9585241400000015 20.9152452000000011
 22.5261546999999993 47.0820582200000004  8.1525461799999999
 19.8436240800000014 11.7898420000000002  1.8745275500000000
  5.1844586899999996 35.1971611800000019  8.6879141200000003
 17.7726207800000005  4.4375325600000002 31.6096918600000016
 14.0910436000000008 28.1697839200000004 49.5582829900000021
 26.0622565799999997 28.3462659600000002 15.6919692699999995
 34.9275478799999988 27.2972026499999991 34.0849407400000004
 15.5990319399999997 22.9298141700000002 31.3866861300000011
 16.0338049399999996 30.1595652399999992 41.8129610599999992
  0.4364650000000000 35.6672550999999984  9.5563825300000005
 14.1211218299999999 33.6945403100000007  4.1389204599999996
 12.8361392599999995 36.9925313600000010 33.4745148100000023
  6.1704450499999997  6.6700368499999998  3.3092576299999998
 18.6930333100000006 23.8108720699999985 39.3269498800000008
 18.0466042900000012  9.2783282099999997 40.8622061100000025
 21.0980784899999989 45.4052565799999996 26.1473918000000012
  9.2139653700000004  9.1159258500000000 11.3658381199999994
 25.6413051500000009  3.4156767000000001  7.2782445500000001
 25.4561519099999991 41.5452118500000012  0.3754923100000000
 10.8992909600000001 34.3831608500000030 27.7843468999999992
 21.5182674899999995  7.5217314599999998 17.7405897099999983
 16.0913314000000014 47.0069184000000035 45.2774716099999992
 28.4652711499999995 15.8122020400000007  5.6796552900000004
  7.9664130699999998 41.5045217099999988 16.4963895100000002
  4.8184376899999997 33.4823077699999985 37.1466911999999994
 24.4390597700000001 47.2775220600000026 43.3133052199999966
 16.7207740800000018 26.0499470500000001 21.4601077700000005
 30.0312987400000004 36.0379832699999980 40.3848722299999991
 48.5475687500000035 38.9880420400000034 22.0224923299999986
 32.0286305500000026  5.1937170100000003 40.8018174299999998
  6.1455553700000003 38.3490346600000009 32.2254477700000024
 13.1006443499999996 32.5295373299999966 23.9338219499999987
  5.7455306000000004 15.1327406799999995 35.9726510899999994
 42.3468304100000026 23.1786401600000005 13.4051433099999997
  0.2436587800000000 45.1731506899999999 25.1437232000000002
 40.5558482699999985 22.1418735899999994 38.4694391299999978
  5.8635288399999999 48.3292325600000012 19.4116777099999993
  2.0673262900000000 45.5529498599999982  8.4283207999999998
  4.7877664500000003 17.9906701300000016 19.1928534199999987
 24.2873617099999990 47.6882521499999967 46.4539152799999968
  0.9540880800000000 35.3583637099999990 18.0188590700000013
 42.9644644500000012  3.7539447199999998 42.5489251500000023
 19.7849408599999990 25.5010049700000003 45.3904905600000035
 27.9747878599999993 22.2595031900000002 15.4701857900000004
  7.4125719300000004 33.0964127499999989  1.4090502199999999
 31.9070064400000000 11.0572008900000007 38.3754140400000026
 25.5837878600000010 36.7225030099999969 45.1081604199999973
 32.8521930100000006 46.8078637899999990 49.7667965699999968
 30.5499703800000013  3.3521188700000000 39.0618001500000034
 11.6751640400000003 24.4820050800000004 19.0593398699999987
 30.3252464300000000 26.4167515900000005 36.3440014099999971
 33.6317407599999996 48.6669357600000012 45.1893637200000029
 47.6359869799999984 18.0331865200000010 33.7658024999999995
  1.8426442500000000 19.3219558199999994 44.1114549500000024
 31.2233407199999995 20.6874739199999986 44.3742443499999979
 47.9248717899999974 23.3201463800000006 41.7002345200000022
  5.8415168700000004 28.3740184400000004 32.1279243899999969
 24.0253042999999984 43.2893822400000019 14.6473144699999995
 27.4143223999999996  2.5165956899999999 46.4238370799999984
 45.4297230099999965 37.3546156499999995 19.0252425000000009
  7.2507056399999996 12.6097610499999995 32.2539872899999978
 42.7643374700000010 40.2199239199999994 26.2613094800000013
 23.8283747499999983 33.4943433199999987 39.4282050400000017
 19.8420762599999989 35.7757732199999978 33.4205184799999984
 48.6540146199999981 28.0236608199999999 43.6674798100000032
 19.3331848499999985 32.8376972300000034  3.1772932500000000
  0.7676832800000000  2.4529662000000001 27.0029144499999987
 37.9831398999999976 32.6323230699999982  1.4537870399999999
 33.7988233800000017  6.8245759000000001  0.6472064000000000
 27.5978847099999989 37.6482699700000012  4.4733981900000002
 34.4033046300000009 16.3409501900000009 42.3497692400000005
 22.5716391899999991 11.5398936499999998  0.9925638600000000
 32.0207327800000030 22.4557551400000008 13.8766834800000005
 25.4192648299999995 21.5840667800000006 13.4104042799999998
 38.6648047199999993 39.3729239700000022 40.7330843599999994
  0.9487996100000000 46.4750706700000009  6.5126959500000003
  8.8808276700000004 10.0707032999999999  8.3103588800000008
 22.2017313700000010 44.4991186700000014 46.6874887500000000
 26.6233420400000007  8.5095928099999991 20.7263412100000011
 47.6166333800000032 42.7571492200000023 19.4070008899999991
 23.4639692699999998  8.9315127899999993 11.9353872100000000
 48.0528064800000010 23.5184447500000005 24.5008858700000012
 36.3888731400000012 37.7908568799999998  0.9315358500000001
  6.3229959700000000 20.5933020499999984 11.6276317799999998
 25.6073195100000000 32.2190732099999977  5.9635189600000000
 28.8631984899999985  3.7769635899999998 29.4270975200000002
 31.2279961499999992 48.9312092799999974 36.8343162500000005
 24.3532505199999996  5.0815444699999999  5.5179008100000004
 39.3588726400000013  4.5723919500000001 48.1915795700000018
  5.8778355400000004 38.7819058700000028  7.4919154700000004
 16.6232531700000017 37.0160867600000003 29.3702298400000004
 25.4529989000000008 38.5524742699999976  1.4350855300000001
 19.4824422800000008 41.4074005800000009 34.1814672300000026
 37.9196806799999990 16.0731123599999997 40.7994384799999992
 16.1625914100000010 44.6738582500000021 33.5356838900000014
 34.2391804299999976  7.9054079100000001 16.1906683200000003
 16.5624448400000013 15.0104396599999994 30.4593333000000008
 30.0146927000000012  6.9402638400000001 45.0143411499999999
  6.0317072300000003 24.9034935299999987  3.0156894799999998
 34.6931472600000035 37.7259689799999975 10.3606329299999995
 31.1577347700000011 18.0483096100000004 37.9396663899999993
  1.9730546099999999 11.1287550399999997 40.9858800399999978
 49.6858807699999971 20.5981767799999993 43.5571957299999966
 15.7887174399999992 10.9739397000000007 39.0045464000000024
 49.4113240399999967  6.1231205700000002 11.2874772500000002
  8.6300604599999993 45.4260692699999993 25.9461832100000009
 27.5012453699999995 13.4309006499999999 33.1471434899999977
  4.0407183099999999 12.3526920600000008 11.6954893900000005
 16.0901097399999991 26.4744386399999989  5.8902780100000003
 47.9024924799999994 47.1911008699999996 40.8323044600000031
 18.5410813300000008 19.9538830099999984 14.9116854700000001
 20.6977253400000016 16.6698070099999995 19.4463965600000002
 35.5869394899999989  9.6919962700000006 43.3813364199999967
 10.1212347699999992  7.5927322500000001 11.0509811300000003
 33.8397738000000032 45.0782278100000013 29.7747422800000017
 24.0935786999999983 40.7771642700000001 41.7999574400000000
 31.8847121099999988 36.3564677700000018 43.1538201099999981
 36.2546529099999972 31.9514436099999983  7.9127492200000002
 39.5761189199999990  5.8307477099999998 47.3767071299999998
 10.3166526500000000 41.9810286499999989 25.1484413999999994
 19.8545781999999988 45.8957871900000001 20.4952497600000001
 13.6627102100000002 29.1705020099999999 18.6273505099999994
 19.8799655199999989 22.5804388899999999  9.4363588200000006
 46.8826628999999997  6.9153167599999996 25.7287389500000003
 22.9155087299999991 40.9551440199999988 33.1055951700000008
  5.7380082799999998 38.7051803499999991 17.9660969699999988
  6.1918257299999997 16.0150421600000001 14.8136252600000002
 22.5997554899999997 34.0905910700000021 10.5641965300000003
  2.4511433500000002 46.3662006599999970 26.7345640700000011
 27.8183244999999992 42.5798660999999967 39.8096115700000013
 30.1417352799999989 42.1448039799999989 27.7204678300000005
 47.9028022600000014  2.3975930200000000 46.3458667000000020
 34.9816715700000032 36.9541450800000035 38.3163739199999966
 33.2964301000000020 13.1007437000000007 34.1992932100000004
 37.5209223000000023 14.1410209099999999 18.1383865499999999
  1.8627529700000001  7.2892334999999999 10.1475095199999998
 49.1924871699999997 28.1318440199999991 11.9024996699999992
 45.3119556600000024  8.0388289700000009  8.5984666599999997
 14.4292201700000007 11.9033655899999999  9.8654806199999996
  9.1327705899999998 44.4753544399999967 47.2820384199999992
 19.2196953899999983 25.4204170199999986 40.9488522400000008
 27.3596069200000009 32.9135118900000023 27.3943421600000008
 16.7086132899999988 21.6635312099999986 48.9689701699999986
 21.4816432299999995 41.9777891999999966 20.7031296900000008
  7.5006920399999997 14.1311391099999994  2.0550044999999999
 38.4605668399999985  6.7469327000000003 45.6979619999999969
 45.6473635299999998 45.2387756199999984 28.1018120600000003
  7.1552930699999999  9.0105702200000000 40.6537063600000010
 16.8428078600000006 27.0717115300000017 44.2556301099999985
  4.3752673299999998 35.1180745699999974 29.4792729300000005
  8.1401922300000003 12.2108302599999998 27.4241826199999998
 18.2372255299999999 13.0495427700000004 23.6653400699999992
 43.3705485199999998 28.8089120899999998 41.3854877400000021
 15.8924871200000002  5.0310230400000000  6.4041856900000003
 35.1489573599999972 48.5264301300000014 33.7111834600000009
 33.8604015200000035 41.7683853500000026  1.2525718200000000
  1.9745776200000000 36.7260696499999995  5.0526704899999997
 20.2329179600000018  4.6521522099999997 38.7222378499999991
  4.6514813999999998 27.4479616100000001 17.8907717700000006
 40.2010735499999967  9.4432294399999996 12.3572194500000005
 37.7873645100000033 42.2353316800000016 49.2194798499999990
 31.7979037399999989 27.3682322900000017 27.8801757300000013
 32.1134497999999979 30.7508335600000002 29.2596294700000001
 16.5924701699999986 19.6461204999999985 42.3472377000000009
 30.0239740300000015 12.9315427300000003 40.4387166699999980
  3.5110375399999998 10.0079257599999991  3.2081701300000001
 19.7154455900000016  7.4940480100000002  2.4648938299999998
 27.4706672099999984 49.5037542199999976  9.5971555300000002
 49.3929270399999965 46.9247936499999980 15.0068581400000003
 20.2647707299999986 40.0016365800000031  7.5059312900000004
  2.1871849200000000 10.0169608900000000  5.0616475999999997
 21.1112298199999984 16.4395337999999995 49.2445781400000016
  3.6247280399999999 20.8042408899999991  6.8766419599999997
 25.7213796600000002 49.2279602699999970 24.3282188300000008
 34.3738909699999979 21.9855966800000004 11.9234802999999996
 47.9333271499999967 15.4294028000000001 21.9728910900000010
 48.3806037299999971 32.8069514499999997 36.4330452100000031
 30.1908531800000013 17.6694508299999988 20.4600301900000012
 21.7274021499999996 22.4478652600000004 31.2713785699999995
 28.0596399100000014 48.3679874600000019 20.7651725099999993
  0.2544353700000000 26.2952925999999998 44.9827158299999965
 24.5050129400000003  5.7524186100000003 30.8996121300000013
 29.7810859900000011 30.7122071199999986 30.0650386300000001
  3.1042203800000001 22.6319052599999999 24.4317337499999994
 24.1491676899999987 25.0613428499999991  5.9893407200000004
 12.8494613900000001 10.8975208200000004  4.6323920599999999
  6.6133888699999996  1.2267414000000001 17.8427442499999991
 33.0026529699999998 25.5883831199999996 13.9550714599999992
 42.8860042199999967 35.0729441399999970 20.9722173699999992
 30.0573892100000002 24.5404525500000013  1.3860774700000000
 45.8040359399999986 28.4320611899999989  7.6523731499999998
 13.4355291799999996 10.9389060199999992  0.1935249400000000
  2.5737140300000001  6.4117688900000003 12.5998154800000002
 15.0987839600000004 15.2620651400000007  9.5287485099999998
 49.6761950400000032  7.8100875099999998 14.1407072800000009
 12.8673268499999995 11.1624385499999992  7.1047351499999998
  9.2836590799999996 30.4580900700000008  9.1198520500000004
 27.3534792099999997 29.9251448499999988  1.9094980100000001
 42.9330505200000019 25.7800307500000017 34.9767778200000024
  4.7048739399999997 24.8163303500000012 38.0641519500000030
 44.2018271900000030  0.1095193700000000 40.6920038100000028
 10.5080688200000001  9.1126381700000003  6.1097145599999996
 35.9725673599999993 40.9396492099999989 22.6843320199999994
  5.5682126500000004 34.9499389500000035  3.6238639899999998
  6.2820214099999996 31.9338529099999988 12.2657806699999998
  0.9756697100000000 48.0808386799999994 44.6556998900000011
 28.3479798999999986 44.4980952900000020 29.4874770200000000
 46.0263398000000024 14.6930047800000008 45.3314130400000010
 35.0589726500000012 36.1533559800000006 29.4539463099999992
 32.4757077599999988 19.2204056600000008 37.3579780499999998
 25.5371070099999997  2.1575510000000002 11.9597347299999992
  7.2615669399999998 45.1555195199999986 28.8166431600000017
 21.3216094200000015  2.2894658200000002 29.0519677499999993
 26.4219249699999992 23.2930072899999985 35.5735643000000010
 34.8951920299999969 33.4925002599999999  8.4518268299999999
 49.8534950199999969 37.6907913900000011 19.1308720600000015
 32.5666991200000027 48.5121335600000023 43.4287336900000014
  6.7270558800000000 11.6282162099999997 35.4298042499999966
 18.7200823000000014 28.4231398400000010  7.7112690099999996
  3.2982777400000001 34.1538985899999972 24.5735761400000001
  8.0941148599999995 37.7884614900000031 10.6723010600000006
 19.3638981200000018 49.0356646899999973 42.4165109599999965
 44.2997094500000017 45.2166422000000026  6.1054808300000003
 14.8163920099999995 19.1005197699999982 22.4357331000000002
 27.3662844300000003 45.1424731199999982  9.5456469399999992
 33.6880917399999973 45.7577936799999989  1.2383750600000001
 13.3697101000000007  4.7176125000000004 38.9133138500000015
 16.0659281800000002 20.0549961900000007 14.3208974599999994
 41.3235655000000008 25.1653821099999995  4.5771092199999996
 27.4746567599999985 16.5561728499999994  9.5970721000000001
 47.9908329900000012 31.9300478000000005 48.3133868999999976
  3.0936366400000002 44.7510541899999978 30.9677006100000014
 24.1441900999999994 41.4029339300000032  9.1105419699999999
 20.8789220200000010 12.0423514899999997 45.8015221599999975
 36.1829720100000003 27.2106399000000003 29.2247237300000009
 29.9317436699999995 12.8158028300000009 45.1981590999999980
 45.4600582300000013 47.1987452300000001 19.3111561800000011
 12.6019077700000004  0.2638350000000000 34.2748605999999967
  7.5821691199999997 33.5164468899999974 10.9228659900000000
 30.6087573400000004 41.3846709700000019  2.1650354400000000
 37.7506199199999983 24.6690556100000009 12.8175636300000004
 24.7920091800000009 29.2983639899999986 17.6035613099999999
 13.0549983199999993 15.3567344000000006  0.6350974100000000
 24.0821524400000015 48.7360632999999979  7.0158368700000002
 15.1702870500000007 17.0143697500000002 10.5123715299999994
 31.4282901300000006 15.2721574100000002 29.1496494700000000
 18.1586218799999983 41.9580204600000002 38.4498841999999996
 27.2037608000000013 13.6077272499999999  5.0719517099999996
 44.2923461500000002 21.4617869699999986  8.2535776100000007
 17.8789169399999999 40.9569736300000002 13.8557913100000007
 24.2845121900000009 49.7963507400000012 27.2669308000000008
 25.3059800099999990 17.6060845499999985  5.4629627899999997
 16.0155669600000010 23.6339434200000014 15.6869928400000003
  1.2887048800000001  9.2628742600000002 31.1277068600000000
 13.3691924199999992 46.0170377999999971  8.3542351000000004
  9.6292439699999992 38.7033368900000028 36.9830663500000014
 24.3961245600000005 25.6655364599999984 10.6713667099999991
  3.6602882000000001 18.4637554299999991 20.3375266299999993
 12.8100050400000001 47.7547746799999970 14.4981135200000004
 19.7939576399999986 27.0461234899999994 14.1974219399999999
 16.0705791600000012 48.2239897099999979  0.5950925900000000
  1.7211172699999999 26.8180203299999995 30.4676582200000006
 19.9317830899999997 43.4784615100000025 42.5026811899999970
 42.5626884899999993  1.1054151900000000 28.7131478700000002
 31.8762141700000008 43.5314898800000023 33.7504378399999965
 43.6088513099999986 33.9639462000000023 32.0437670600000004
  9.5929803400000004 29.2205263100000003  9.3856338000000008
 44.3472591399999985 44.3844252900000029 19.0359134499999989
 36.5974356799999967 43.1015134100000026  7.1358120100000004
 31.5924556599999988 24.4022899700000018 29.2874480999999989
 34.1401610400000024 43.6866826600000024 42.0754350899999991
 11.8375874900000007  4.3329075899999996 23.1779161000000009
  1.2359217499999999 22.1368749700000009  4.4576696399999998
 20.0535954300000014 40.7783960900000011 12.5030520400000000
 38.7956872299999986 39.1152702899999980 10.3477972099999995
 15.4277793200000009 44.6870373100000009  5.0360214000000001
 40.4116506900000019 48.6131073000000029 40.4943394000000012
 38.3622365700000003  4.1100600099999998 27.7785124400000001
 23.4585564899999994 17.9589704700000006 36.4166792700000030
  5.1284097400000004 43.1824863599999986 18.0482924300000001
 37.6508733699999993 48.2286721199999988 29.2923660400000010
 16.7960120699999997 40.5748202699999965 41.0042012799999966
  7.6108574200000003 15.6806649900000004 44.9365643300000031
 48.8366861800000009 48.1846646600000028 39.6589912700000014
 48.6662056999999990 32.9191819899999985 22.6917361200000016
 30.0090491399999983 12.0889729199999998 29.3678294499999986
 35.1096306399999989 37.5621538799999968  7.1202345700000000
 19.7824032800000005 32.8519883299999975 43.3677831899999973
 32.3320182399999965  4.2305995500000000  3.6866319200000000
 11.2225956300000007 18.1648135300000000 46.0209479999999971
 24.0730404000000000 45.5900609500000016 32.1543407999999999
 18.0058407400000000 24.1653982899999988 47.8490520699999990
 49.0181813700000006 48.5743031599999995 38.3132060499999980
 30.0540313499999989 18.1048951400000000 38.9726665100000034
 13.6059536699999999 25.2632677900000004 49.7417558699999987
  9.6908766400000008 24.5636141700000010 40.6634233400000014
 30.1560465200000003 32.6737843800000007 48.2941399799999971
 29.6106205500000002 15.6995161700000008 11.7683405099999998
 40.4989707200000026 16.2009573200000005 39.4895954899999992
  1.6314675800000000 20.0756275399999993 11.0721006800000001
 38.7961425499999990 46.7678941499999965 27.9970436000000014
 46.3118216200000035 12.7860320600000001 44.8407630199999971
 38.7040422899999967 48.8388418199999990 34.4144932399999988
  4.3878636100000001 46.8237109499999988 16.1098820200000006
  8.7871645399999991 35.8743991400000013 41.0263530200000019
 29.9151562800000015 34.0315294800000032 17.9160431600000010
 14.9373506299999992  2.0519802600000001 37.6322116899999983
 34.5818369099999998 16.9329663600000018 42.3655866799999998
 38.4154022900000029 47.6662042800000023 25.8952880900000011
 22.1068689200000001  0.1460004800000000  3.8301201599999999
 22.8294536299999997 44.6272347800000020 49.9349405800000028
  6.5462539700000004 22.8904762599999998 20.2345770199999997
 32.5359406099999973 31.5538343200000000 25.2933978699999997
  6.1379784700000002 11.0042238399999999 47.9901232699999980
 20.0018784099999998 21.5704779000000002 35.0220791899999995
 16.0849896600000015 40.4211607299999969  8.4483074499999997
 40.7033614300000011  1.3955629700000001  5.2267864399999997
 46.5996480800000015  0.2852198700000000 43.6903032399999987
  2.9266300400000000 37.8710688299999987 49.0537723099999994
 46.7511407100000014 46.4218869799999965 12.6544538200000005
 33.4054296999999991 45.0569541400000020 22.2282366200000006
 39.9729263700000033 24.9734825100000002 29.3205544499999995
 40.5586227699999995 18.7729469100000017 16.9187537500000005
  3.4942312900000001 27.5452588600000006  3.1656268999999999
  4.6913063199999998 46.7852790100000036 20.1843656200000012
 38.6330221500000022  5.2032647699999997  1.2709535000000001
 10.9154169999999997  5.4134588499999996 34.0028599999999983
 36.0680103700000032 45.0502932699999974 10.2790680999999999
 10.2975477000000009 20.8842725400000013  1.9685082400000000
 34.7179553599999977  4.6757912800000003 36.0239601199999981
  4.6976751700000001  3.8265313700000001 12.5127997099999995
  2.6246836199999999 13.0575817799999996  8.7770397399999993
 15.7068262900000004 34.6294243700000024 16.7354680000000009
 23.0106377100000010 39.7880759700000013 18.1928969100000018
 18.0183211199999995 33.9230513600000023 44.7241923300000010
 29.5004593300000018 14.2200362899999995 46.1499845600000000
 42.7904850299999993 29.6819060700000001 13.7953410699999992
  8.2973430399999994  3.4445362899999998 42.3213925900000021
 45.6452187100000017  9.1909101300000007 21.6265140400000000
 26.8215288500000000 39.4354374099999987 41.3965477799999988
  1.7785399900000001 41.9216584099999992 27.3129704800000006
 49.0948041899999978 36.3740159099999971 38.0854585200000031
  2.3012658400000001 27.3749040100000016 40.0116986499999996
 26.6192922000000003 40.4440506799999966 43.1597494999999967
 35.9097692799999990 35.4923175799999981 19.3815891299999983
 46.3684331799999967 14.2565262100000005  9.4360192800000000
 41.1760657499999994 46.1370921700000025 26.1080604399999991
 48.1718167399999970 23.7239849400000011 29.0148840399999983
  3.1560954899999998 44.4968758099999988  8.9917812099999992
 24.8667504800000003 35.4752404299999995 32.3659319100000005
 24.2176376600000012 25.8361999800000000 29.0130038200000016
 21.5551730100000007 27.7928007400000006 13.6020882099999998
 10.2965765699999992  4.5623794499999999 29.9113356599999989
 19.8185176200000015 39.8256649200000012 49.9503370400000009
 15.3145879300000001 42.2794160600000026 40.1457708299999965
 29.9703113600000002 11.0230971899999997 15.1944346299999999
 22.8628785699999995  6.4001070400000000 16.5989629799999996
 28.7707523599999995  0.0348754900000000 36.1524038200000035
 13.4509777699999997 20.5834020299999985 45.2378473699999972
 12.5007275799999995 49.7284084799999988 35.3613066400000022
 17.4807301600000002 48.6317504399999976  3.8296851099999998
 15.5176681500000004  5.4486620300000004 25.6626798700000016
 12.6605044899999992 35.0989239499999996  7.6147499999999999
 31.1032422299999993  2.1921000899999998 42.6262450099999981
 19.2999457600000000 24.1883289400000017 33.2445187900000008
 40.6272729299999966 22.5762176200000013 38.4895388400000016
 43.6793662800000035 19.1090865600000015 16.4178396900000010
 34.6316436700000025  4.0351612499999998 18.9551492300000000
 29.1931252800000003 48.8566308699999965 33.3951037799999995
 21.5091724000000006  4.6606089500000003 30.8545820599999985
 22.9606129999999986 49.0227489500000004 25.3415939500000000
 16.1695447399999992 11.5383779900000008 25.5189058700000011
 46.2509949900000024 40.4728086399999967 26.4947924400000012
 47.9765738400000004 42.2764468000000022 40.2413185600000034
 35.8411058699999998 31.4663866699999986  5.5607313500000002
  9.2118817400000008 24.0964452800000011 38.9559021199999975
 31.8468773700000014  0.4678786300000000 13.6360819299999996
 31.6289675599999995 38.0577293200000000 36.2566291799999973
 15.1665547499999995  4.2856288200000003 28.5635146400000011
 16.9906308300000006 11.5322843699999993 23.1034290599999999
 49.3322429199999988 27.0068305399999993  3.8009487800000001
 32.5461600599999983  3.3121167200000001 16.7457666100000004
 46.0994028900000004 42.6644290500000025 11.0590944800000006
 20.2009533200000000 17.4223826300000013 17.9849430099999985
 22.9371205300000014  4.1847677200000000 33.3911076600000030
  4.3464019699999996 49.9778795499999973 28.2216331599999997
 20.9884987299999999  3.6981726799999999  5.1882008099999997
 48.0910385000000034 16.0841008300000006 25.4825784000000013
 35.6951891799999999 29.0446216600000007  2.9562540799999999
 35.7623759600000000  8.2527443300000005  3.8740204700000000
 10.6619808400000000 45.9119894099999968 42.8059417699999969
 39.4633635400000031 10.7509560000000004 41.3174950000000010
 23.1384845299999995 38.5095384600000017 29.8129256500000004
 15.8413791899999996 46.0599958399999991 30.3501040999999994
 44.1996909000000002 14.2048764300000006 41.3582288200000008
  7.7517007700000002 32.8349195600000030  6.4930006200000001
 27.8614092999999983 16.7060728300000001 28.9659910700000012
 31.4119763100000000 41.0858760099999998 30.3180676300000016
  5.7627038600000002  3.7637605100000000  7.5229193600000004
 37.7056577000000033 18.9888846200000003 46.1838379300000028
 11.7640083200000003 17.6879095900000003 30.6965250000000012
 16.4956184400000012 41.8591441499999988 26.6358109100000000
 18.0739345600000014 18.6181143200000001 14.6474531199999998
 29.7446238500000000 17.8930153199999999 27.9085206499999998
  8.5065032200000008 18.7995551200000008 14.1229716900000000
 14.7851835099999995 44.5792085900000004 42.7588251399999990
 47.5741038600000010 27.9634965199999996 32.4860927100000012
 43.7601797000000019 27.3402528700000005  7.6300395500000002
 38.0746418100000028 20.5048822199999989 25.5554628400000006
 10.6640268900000006 30.2998819799999985  0.1163746200000000
  5.9082901799999998  0.6331078500000000 40.6435984599999998
 46.9593322099999995 45.4964924800000006  9.5491375099999996
 42.3541643900000011 46.4408254499999984 30.9532829199999995
 31.8261016800000007  1.2908922500000000 46.0260699000000031