Na Cl 
 1.0000000000000000
    50.0000000000000000    0.0000000000000000    0.0000000000000000
     0.0000000000000000   50.0000000000000000    0.0000000000000000
     0.0000000000000000    0.0000000000000000   50.0000000000000000
 22900 22900
Cartesian
  4.2092273999999996 44.4848491600000031  6.8597510300000000
 41.8354875100000001 29.0386431999999992  2.4762383899999998
 18.1386317000000012  5.9829450700000004  5.3578014700000001
 48.5693790899999982  5.5544382700000003  3.4439796600000001
 32.9661420899999982 11.9501617800000002 46.3690242899999987
 24.1913193500000006 33.5042882199999994  6.5720601299999997
  6.6145557899999998 20.8392314499999998 44.9629416200000023
 42.1598076100000014 29.8864766899999985  2.0136644800000001
 43.6589831000000004 26.5289468299999989 22.0094535399999991
 12.8855954700000002 18.2030354699999997 38.4171631800000029
 27.2616196299999984 36.0411514700000026 43.6327494399999978
 35.6198690100000022 13.1383942699999992 16.9925533100000017
 43.8434498599999998 26.8617781200000003 15.9049251199999997
 14.0764765000000001 33.3406049199999970  5.5469155800000003
 27.0101582299999983  9.7293574599999992 21.3108993499999997
 22.2853207600000012 49.3860113699999985 30.6930358699999992
  7.8538075400000000 48.9432556300000030 39.2974018500000000
 21.4329519399999988 23.6232705500000009 36.3081746900000013
 31.4920211399999985 36.3992285400000029 11.8340477899999996
 44.8411529899999977 45.2582352299999968  5.1595223199999998
 16.0915654699999990  0.9408429000000000 12.7466817700000004
 33.4804724800000031  6.3010133599999998  1.1315405100000000
 17.8014208899999993 38.4808619200000024 47.8463233700000004
  3.1568314700000002  6.8664524299999998  4.4659414799999997
  9.0784797299999997 32.0087454399999984 20.9846618499999984
 39.2116292099999981 29.8521269700000005 24.6980141999999994
 49.5245977800000006  9.9148352200000005 38.6355609299999969
 47.8726299699999984 45.2919100399999977 21.1320243199999993
 15.9327054900000000 30.9812311499999993  1.5518711199999999
 32.2978946500000035 30.7154341700000018 34.3021689099999989
 16.5529419299999994  5.2949829499999996 42.7784698500000005
 27.7427958900000000 23.1705558399999987 27.5319379200000007
 29.2805946800000001 18.9547888299999983 23.1359067899999999
 45.1854974700000014 32.6559909300000015 49.2395702499999999
 19.4572138000000017 17.3923234300000011 12.7798938000000000
 41.6751287100000027 33.8882967099999988 10.6027313299999992
  0.1055047100000000 23.2177438800000004 20.6213713299999988
 33.3878659100000021 49.8623497299999983 36.5119420899999980
  6.2106402200000002 32.2301004500000019 41.2982041200000012
 48.9166591800000035 42.2907997399999971 31.4711503400000012
 35.6237062399999971 27.6308075200000012 40.9819682600000021
 33.9404658099999992 37.4088801199999992 31.0480963599999988
 25.3554944999999989 49.7960587700000019 22.3597972799999987
  1.1128142500000000  3.0690682599999999 31.8302467799999995
 20.9577095299999989 36.2241156999999987 18.7126263600000016
  3.1112284400000001 40.4164147099999980 28.6819519599999992
  7.5666062800000002 21.9517511899999995 43.0822226399999977
 32.9159432499999980 18.2581639699999982 14.9618452000000008
 13.7323081299999998 48.9027820800000015  9.0583433899999992
 43.5773640600000007  4.7577703900000001 13.8468765999999999
 24.4549338100000000 14.0725803400000000 17.8577646500000000
 35.4504111199999983 15.0596184999999991  7.0080605599999997
 34.4738335999999990  1.7212729400000000 29.4343755700000003
  3.5502344899999998 18.7909928899999983 20.2175635199999988
 46.5901480699999979 40.6186779700000002 28.1206156999999983
 23.1879969499999987 20.6646853499999992 11.3666029000000002
 38.4949427000000028 34.5020336299999997 25.6791515600000011
 39.5003163900000018 31.8175757200000007  7.9951582500000002
 24.6247308199999999 17.8509095299999991 20.2364726600000004
 14.3959159099999994  2.1586969300000001 31.2192555200000008
  2.0275190500000000 26.5126431700000005 47.9937869800000030
 31.5777951500000000 28.0031412999999993 48.7957791700000030
 10.6604303700000003 19.8533103199999985 24.5865402899999985
 25.9825829500000012 39.2717036800000017 39.5238074399999988
 26.6316865199999988 48.7553907100000004 31.8516408899999988
 30.5285055999999990 42.5936712600000007 21.8328938699999995
 45.4472534300000035 31.9884607000000010 30.0590165800000015
  1.8916565200000000 43.0711907999999966 47.5037770300000020
 45.9806006600000003 45.9553193300000018 21.0519492700000015
 20.1114215999999999 12.6628004999999995 23.6880115300000007
 24.4098581000000010  6.4851231699999996 45.4650684499999969
 31.4053913300000005 30.4120143600000006 34.7252669000000012
 27.5607455700000017 13.4507112299999996 16.1035882599999987
  3.0079142200000000  4.0143031400000000 18.3928955000000016
 29.3946119199999991 35.2424759600000002 20.2934292700000007
 21.6657496899999984 36.2549672800000025 37.2350254999999990
  9.0735246699999994 48.7291327900000013 40.5348092300000005
 18.5386840799999995 29.6633427400000009  1.8014350400000001
 26.7187991999999994 12.8581585000000000  7.0698368399999998
 22.7477631600000016 21.6554932899999990 13.8756624700000000
  8.2591675999999996 11.8297840799999996 23.1809594499999996
  2.3855493600000002 43.9281740400000018  0.8211413900000000
  0.9232877300000000 17.6968651900000005 31.2132585899999988
  1.2371878100000000 43.4155990300000028 35.9729626800000020
 47.5838454000000013 41.6895761600000014 26.7064901200000016
  5.9794353600000001 46.3700650500000009 41.6832546400000012
 20.4607881899999988 34.4671660300000013 39.6594047000000032
  5.6148476499999997 18.7443849000000000 36.8770469899999966
 42.5286773799999978 29.4807093100000017 32.2814108500000003
  3.6721366700000000 17.6010254199999991 20.4341566099999987
 36.8700643499999998 25.1714877000000001  7.1937237200000004
  4.9145641099999997 49.0789313599999986 19.5993062000000009
  5.5392482599999999 48.1454665099999986 30.8555755699999992
 39.6585631399999983 41.4706418000000028 47.0767631599999987
 19.1585100100000005 47.0777587299999993 35.8908961699999978
 18.2919194099999984 32.2894830400000004 39.3414651499999977
 12.0047083899999993 13.1338752900000006 41.0419441499999991
 41.9553039099999978 42.7928025300000030 18.6321806000000016
  1.0593719800000001  4.8648432899999996 13.4210929100000005
 18.3085454699999985 11.7237363499999994 40.8368863800000028
 45.5494242899999975 49.1740964999999974 19.0399557199999983
  4.5357993099999998 33.1790477899999985 40.2561904399999975
 35.7926435500000011 16.9600937800000011 48.2962063499999985
 14.3401341299999991 14.6344014700000002 10.3855809699999995
  0.4593810300000000 20.8169738200000012 20.8789263900000002
 12.1159193599999995 32.2567307099999994 38.8730006500000016
 38.5218799800000014 37.2367554100000007 38.1480951500000032
  5.0351952500000001 26.5264976700000012 30.8462731000000012
 33.3119670800000023 24.2306845799999984 45.1158052099999978
 11.3380884599999998  9.2526995599999999 10.1215385399999995
 12.6982642400000003 19.7270763199999983  2.9717077299999999
 45.4917880699999984 30.4820681100000002 12.1187798299999994
 30.3325517900000001 49.1980064899999974 20.8950596299999987
 33.2671347699999984 20.7340706200000007 27.5249714400000016
 12.1949800100000001 11.0290518100000003 15.2737402200000005
  5.7518699000000000 21.6774099100000015 32.2284274900000014
 13.1807985999999993 29.6820866300000006 16.8300157500000012
 12.0746955600000003 39.4082174099999989 33.9100459000000001
 26.1415252799999998 10.6154088400000006 13.1764512099999997
  6.6154945400000003 36.6168005600000015 18.5669488399999985
  4.7090866900000004 45.6199277600000030 34.1259255499999981
  4.4306612100000002 16.1230044300000017 29.3354242200000002
 40.4749417900000026 12.3466073800000000  9.4302788700000004
 44.6968900199999979 20.6306466899999990 39.2789672800000034
 11.6030370200000004 12.2431482900000006 20.5933838199999997
 13.0019422200000001 23.6429174499999988 16.5136506599999997
 44.9266847199999972 32.7900880600000022  3.0100828100000001
 40.4617047799999980 39.8722782199999983 33.3800741900000020
 18.9068434600000010 17.3180577400000004 14.5964796000000003
 23.0326781400000016 10.2214812599999991 42.4355057699999989
 13.5455292200000006  9.7096795000000000 40.5834045499999974
 35.2801880299999979  4.1201614299999996 47.5532015499999972
 26.6585203499999999 49.7514845600000015 23.2009484800000010
 38.3410588300000015 48.1757864100000006 40.4422175999999993
 12.3512469100000004 37.4067437100000006 45.1414968300000012
 43.1372724699999992  8.1383601799999994 31.4195456799999988
 18.3042909599999994 40.2181136100000032 45.8355163399999981
  7.5231893699999999 42.2437779099999986 41.1753394400000019
 33.9299127199999973 10.0430041400000007 42.7705230400000005
 44.1807173400000011 45.3163304099999991 31.5652202499999994
 16.6567352699999986 49.7496458500000003 42.2977468200000004
 48.2307967300000016 15.0005670999999996 14.5313046700000008
 27.6376012099999997  5.1636086099999998 34.7699123100000023
 27.9162462200000014 38.3502737299999978  3.0506337299999999
 22.0011144999999999 22.7313660900000016 46.0698570599999968
 46.0875606399999995 43.6316411000000031 16.9919362099999987
 33.4719453200000032 12.9849308000000008 37.7319522599999999
 10.9216515500000000 10.1975863100000002 40.8331935900000005
 33.4847507899999997 28.2065635700000001 17.7138846699999988
 17.2596199800000001 32.4329218000000026  0.1167714100000000
 12.5771394300000008 33.9823846399999994 41.9386408499999987
 12.7367441800000005 16.4594913900000002 34.6718076800000006
 29.0716407500000003  7.0660689400000001  9.4206962999999995
 33.6427328600000024 33.4111213600000028 40.7167090100000024
 25.7282635100000014 14.9247857100000001 40.8734498500000001
 10.0716340399999993 23.9533144399999998 33.3557825199999982
 10.6368559900000008 23.6386707399999985 45.1391196100000016
  3.1832660800000001  1.1529999099999999 28.4694739299999995
 36.4483151499999991 36.8327626199999969 48.2413521300000028
 42.4051836100000017  3.9209293000000001 49.0587232399999991
 29.9614899900000005 12.7623145299999994 46.2202975300000034
 24.5405464100000010  2.9634821900000001  7.2452361999999999
 20.6847496000000000 48.5864623200000025 42.6722296000000014
 42.1629104499999983 32.0359229700000014 27.7573988400000005
 18.6023652599999991 49.9529923500000024  9.9425020400000008
  3.6318554299999999 40.5942574600000015 17.6850718499999999
 33.0026307299999999 25.2146739900000014 33.0256876199999994
 12.7318694099999998 34.5291447999999974 31.3366309399999992
 24.7562420400000001 28.1600283100000013 35.5958470100000000
  9.4006572399999992 46.8462800100000010 45.4281730100000019
 11.3037629299999995 32.3436291599999990 49.3752472600000019
 49.7806406600000031 13.2275371400000008 15.2167257899999999
 47.5103923799999990  7.1647415900000002 17.8119070000000015
 14.7209146799999999 14.4130722900000006 40.5060108699999972
 34.5247036000000023  6.6934167699999998 46.2556054100000011
 17.9601253999999990  5.8276402999999997 45.1505624200000000
 45.5025944799999991 12.1054889699999997  6.9531030300000003
 10.8026030500000001  9.3495012099999997 37.0667888700000034
 31.5205762299999996 16.3247137199999983 19.4634477699999984
 22.1666679400000000  5.1879922199999999 44.5852163899999994
 43.7319020899999984  2.0785011400000002 33.3685940800000012
 25.9606228799999990 20.1887384200000000 12.1265426800000000
 10.8028231699999999 13.0490259599999998 14.9792441499999995
  6.1563778200000003 20.2420739300000001  8.5365725000000001
 24.1740452200000000 43.1780768100000003 43.9368800499999992
 47.1429410599999983 31.4104123699999995 14.8006235299999993
  4.0796994000000000 17.5078457299999997  4.3631890100000001
 32.1177087200000031  2.3304154900000000 17.2930974599999985
 45.0889998299999988 10.8201857700000001  4.8622475300000003
 19.7941714299999987 30.6392096100000018  3.1959584699999999
 14.4739988999999998 14.4995557700000006 44.0337885100000008
 25.8835605000000015 25.0013244000000014 47.2591724700000029
 34.9117026799999977 10.9869879499999996  8.3064567799999995
  6.6191048900000000 47.2958153800000005  0.7690910300000000
 26.1128631099999993 28.8902500499999988  8.4326677100000005
 27.8461408500000012 10.0892077699999998 19.3150118299999995
 27.4038539199999995 26.5727710100000003  8.5623693700000008
  7.7419886900000003 19.6038577799999985 32.0377032700000015
  7.6787824799999997  7.2971048100000004 42.4405422999999971
 48.1943651799999984  2.6955677699999998  4.4074676999999998
 26.3095522700000011 34.6449258399999991 27.2686482300000002
  4.1708037999999998 48.6994247599999994 41.2320163999999991
 36.4996204300000002 49.1206051099999996 20.0100487899999990
  8.8899963300000007 14.1683921500000007 28.1668931600000008
  0.9733565900000000  9.2041320199999994 43.8468775199999996
 34.4705082899999979 45.8327787400000020 11.5123558100000007
 38.1641736400000013 25.2664209500000005  2.7368413500000002
 48.0926198599999992 42.6620595099999989 21.2342231900000016
 33.5890974100000008 31.9601271000000011  3.8561439399999999
 10.2111868399999999 19.4171779200000003 44.5092694300000034
 17.2913816800000006 16.2519596600000007 46.6859934599999988
  1.4920877100000001 27.5180862899999994 46.4762407300000007
 26.1780139900000002 23.8810950099999992 19.5637827599999987
  8.4968429299999997  6.4391769300000004 23.2466052599999990
  5.6946508800000002  9.9974170600000001 26.5885384599999988
 23.5659717200000003 23.2867421499999985 30.2752443699999993
 36.0321774299999973 42.8060916199999966 41.9818891600000015
 39.6111804700000008 45.1101773600000016 16.7509374999999991
 33.0065377000000026 40.8790860300000034  4.7988770100000000
  4.7258840700000002 27.9335023299999996 28.3736046500000008
 25.1734126700000012 39.5467602800000009 12.4000797299999999
  8.1400872900000003 10.4471579499999994 35.3836245500000004
 42.5778688799999969  6.2423138199999997 14.5683892400000001
  0.9179094800000001 27.3046481599999993  9.2215414700000000
 36.4474318400000001 21.9869227699999996 34.2110233499999978
 34.6695118499999992 40.4856837100000035 42.8860760999999968
 36.2809442399999966 23.8298172699999995  7.7388700100000003
 17.1883149400000015 34.0091720400000028 42.1544456800000020
 39.7685738899999990 40.4214217700000020 12.8357700599999998
 30.7873944900000005 43.7391854999999978 24.4907427200000001
 15.9129413399999997 48.8050753899999989 16.9021530899999988
 24.4869064200000004  1.4361808300000001 37.8912367300000028
 38.0157815199999973 31.2400682699999983  1.8274844200000000
 14.5305913899999997 15.6495601000000004 22.1566203199999983
 36.3176400700000030 40.5766724799999992 22.1343676400000007
 12.3169756800000005 11.4102279600000003 21.7013030399999991
 33.8002168299999965 30.2442032800000007 14.3244460100000008
  0.9640211200000000  2.3030377000000000  7.1546303599999996
 47.8724728099999979 42.6505104100000025 27.1285260000000008
 49.1364646700000023 36.5617069799999967 42.6092445100000035
 33.5725089199999971  3.1574617900000002 17.4602258600000013
  4.0159720700000001 46.4426029199999988 10.8273170200000006
 24.7172229600000009 22.3662429100000004  9.4446349000000005
 35.9787671500000030 45.1395382199999986 10.2187807300000006
 47.0476512099999979 29.8738611499999998 39.9844077400000018
 17.9408342900000015 31.6019017600000005 33.1629296199999999
 19.3581580700000018  2.5627500599999999 22.1402959999999993
 11.9548740400000000 25.5679680199999986 20.8384341199999987
 31.5622408599999993 16.5820594700000008 44.6735482400000024
 28.3252785600000010 12.9567241099999997 13.6621565599999997
 19.8653402800000016 26.7741376899999999 42.9321417299999979
 10.5060885000000006 25.8294376200000002 15.3580781099999992
 23.2188685399999990 39.5236183600000004 23.4537892899999996
 37.8365151799999992 18.3105635999999983 45.6424380899999989
 12.4569200500000008 13.4552853500000005 42.9808395399999981
 28.9701763200000002  1.7534266199999999 19.8412597499999990
 22.0526260399999998 38.4858988399999973 32.5018117400000008
  7.9498396500000004 12.9550394400000002 35.3479178600000026
 42.4553959400000025 47.8395004999999998 38.4848690800000028
 15.1945787600000006 25.2851398500000002 17.3455373500000007
 26.4461823400000000 30.9865826700000007 41.4948545600000003
  4.0205723600000001 23.7596961499999999 29.2132727699999997
 37.4754537999999968 49.9520212600000022 43.6213915900000018
 44.7284616700000015  1.2553519300000000 48.6999586900000025
  0.2057313900000000  7.7275053900000001 26.1830339300000006
  8.2513122200000009 29.8044131300000004 22.7714359399999999
 19.5238446900000007 37.2577178000000018 40.4630642799999976
 12.7213632699999994  7.9525581599999997  8.6449918599999993
 46.3782082500000001 28.5461044299999998 24.3771629999999995
  6.9785194500000003 37.9764028299999978 19.4023692099999998
 45.6193787500000028 24.8986361900000013 21.3784404200000004
  7.4481364799999996 30.8298864799999990  7.9020328400000004
  9.4659265599999998 43.8277619899999991 13.1957022800000008
 30.1681653300000008 36.3546530400000023 12.6536764700000006
 20.3404801800000001 12.4503173500000006  2.4836303399999999
 42.3751999600000033 49.9857085100000020  9.8028576500000000
  6.6285451200000001  5.9578427800000000 33.4636703999999980
 23.9083924699999990 28.3522011599999999 15.4449152600000001
 32.6907736400000033 33.8325699900000032 24.0039040399999983
 33.6152780999999976 21.9789554199999984  0.3038019200000000
  5.9988293099999996 22.3242572400000014  3.7913988600000001
 22.0406313800000007 36.8915402299999968 36.1165942100000024
 11.5988772200000003 42.3294090600000033 30.3781221099999996
 15.0982417699999996  6.1494320900000004  3.5051240099999998
 10.6192972599999997 28.5289824400000001 36.6078264300000029
 17.7387257399999996 34.7635492100000008 20.9716495199999997
 20.5135232199999997 20.7847013700000005 28.4759267399999985
 44.9006618900000021 45.4243989200000016 47.8726053600000014
 44.8782864200000020 19.3599209499999994 32.1914274900000024
 41.3217589899999993 44.8033738900000031 10.3048972100000000
 44.4074672400000026  6.3018824200000001 15.7378934600000004
  6.7754324800000001 24.6936745100000010 26.5875321000000007
  6.6520137999999998  0.3958965400000000  3.8331825799999999
 24.2995710699999989  2.8909583099999998 38.3363562099999982
 19.1388485300000006 16.6273173999999990  5.3234636999999996
 21.4544751799999993 35.3643188200000012 18.1063823500000005
 13.9681333300000006 12.4168359000000006 39.7610281799999967
 13.6005863799999993 35.0553617500000030 25.4649495100000003
 39.4064583500000012  4.3455447100000004 35.5699250600000028
 23.7305509999999984 39.3706037800000033  1.7378081999999999
  7.3424868800000000  5.1769677999999999  9.2978807700000008
 19.4820596700000017 34.9768642700000001  6.1578393900000004
 44.8066991299999984 16.1922174599999984 42.5988187700000012
  8.3471449399999997 40.4649456200000017 44.3410690400000007
 40.3473247700000002 17.4874581199999994 11.7086987800000006
 38.1003352099999972  2.3338064300000001 24.2847184100000000
  3.2622583700000001 28.7764099999999985 45.1229140800000010
 30.8170068499999985 41.4340507699999989 32.0912323599999993
  7.3422340000000004  0.9268579800000000 27.7020296200000011
 38.0118416600000018 15.0227232399999995 36.9095627199999967
 39.0205636600000005 18.6133821799999986 35.1143234299999989
 16.4339553599999988  5.4878049600000001 33.5378881700000022
 21.2864732699999983 11.7562517999999994 37.3240768399999965
  5.7594242800000002 48.6438157700000033  6.6116952600000003
 22.7622364099999999 14.9072675599999993 46.4458296299999986
 15.0585775300000009 39.5126034000000033 38.3253289600000002
 33.8037720600000000 39.9969673000000014 29.0293614499999997
 46.4779157600000019  4.3302468500000000 28.4588247900000013
  7.4682505099999998 18.8863847699999994 23.4688722399999996
 41.3357460399999965 29.8836360100000000  4.2704640899999999
 23.6899733400000017  7.3819604700000001 18.6096809199999988
 22.9072100100000000  1.4786782199999999  2.1448699499999999
 48.8293078299999976 24.1766263799999983 36.5596416099999999
  7.8965576200000003 17.4438681299999985 29.0916640400000013
 43.5975991899999968 44.8495160100000021 35.8155226299999967
  1.4887900999999999 22.0952610599999986  5.0526154900000000
 19.3086237499999989 20.0393724999999989  1.7336866099999999
 38.0709012399999978  7.6372232300000000  8.8108664200000000
 34.2318986200000026 35.5201672900000034 37.4516901499999975
  0.5563539000000000  0.6399801200000000  6.1459386299999998
 44.7905278699999982 44.4019789999999972 14.0610769700000002
 24.5206169199999984 18.0085740399999992 20.1038379300000010
 35.2041160200000007 25.5778695599999999 37.2536542300000022
 22.1666442600000018  4.7900213400000000  5.8886893100000002
 21.2012684799999995 29.7192928300000005 42.1545716700000028
 41.8859981000000019 27.9700039099999991 41.8556899299999969
 18.5805863799999997 33.9152673700000022 13.8986037899999992
 43.8338581699999992 15.6542241200000003  0.5447521800000000
  5.6499032099999997  7.9232457099999998 15.9906997200000003
  5.6901722200000000 34.7245714800000016 15.8728457100000000
 24.9178982200000014 45.1154221999999976  4.9008997399999998
 19.4219518099999995 24.7440331299999983 22.9647572000000011
 18.6743048099999989  9.0409528699999999  1.2949516500000000
 14.2524439199999993 40.8249792100000022 45.4256404599999968
 18.7392710800000017  0.9290337300000000 14.2699573500000003
 35.1731617900000018  5.3301473200000000 33.7859618399999988
 40.6606482799999966 33.5155815500000003 46.3791239999999974
 43.9370509000000027  0.0144359400000000 42.6248820899999998
 46.3933368900000005 32.8131021200000035 39.8072522599999985
 40.4886527900000033 42.7873978100000016 27.7950344700000009
  1.1443989100000000 33.9125205200000011 17.7324167999999993
 28.7291592599999994  0.9796600600000001 15.1465621400000003
 18.2698563100000015 11.4749335699999992  9.2085737099999996
 18.4983093799999985  1.0858224700000001 49.4182699600000035
 22.8632010399999999 11.8198677500000002  6.5172521200000002
 35.4563724200000010 15.2512324800000005 27.4643117500000002
 42.6875099700000007 48.9801305599999992  9.0542786799999995
 25.2617694300000011 24.5588474999999988 10.5499683700000002
 13.3183872200000000 42.1339332599999992 45.0162253800000016
 37.6999364899999989 22.8325466299999995 46.6111533600000030
 43.6544557100000006  0.4370717100000000 45.8642315999999965
 40.1405542600000018 42.2954097399999966  8.9514233700000005
 46.5725447700000004 44.7600061300000007 31.4229972099999983
 26.3141225399999996 11.4576095799999997 18.0441581500000012
 18.1660191699999984 16.2842006499999989 38.5603218799999965
 33.3297561099999982 23.2109038000000005  5.6602245900000003
 31.3947203500000001  1.0648930000000001 47.6566251400000027
 14.8986547300000005  1.6900864400000000  5.2828603400000000
 39.0338162800000035 41.3502860299999995 24.2573203200000016
 42.7825615699999986 46.5123199399999976 32.5611910200000025
  5.9375334600000000 42.1247928399999978 41.3932058199999986
 45.6102530900000005 21.5237125399999982 49.0366411600000021
  8.8280159800000000 22.4645562599999984 11.7970190800000001
 22.4996177099999990  1.0748834599999999 15.5662904599999994
 22.6437040699999983 22.7343214499999995 45.7406921999999980
 13.8137900600000005 18.3694841000000011 35.9192015799999993
 44.0209053900000029  9.3568806599999998 11.0932191200000005
 43.7337280200000009 32.7668689599999965 12.7665716499999995
 17.7697479300000012  6.1535300499999996 22.3795214099999988
 32.6162935600000026 32.0458953899999983 45.3637923599999979
 29.2581240499999993 41.2909923100000000 27.7077218599999995
 33.6813794799999968 32.9449853099999999  6.3680747999999996
 28.2331958999999983 15.3235085400000006 42.2079980099999972
 39.8225612399999989 47.7868032900000017  2.8028349200000000
  7.2464539500000003 41.1514878500000023 33.0562355200000013
 26.1503018300000001  8.1229034599999999 21.6384795399999987
 27.9255654299999989 44.9782277699999966 49.0740746999999971
 37.9734053700000018 19.0240302899999989 36.8771011899999976
 43.4396667600000015 40.4792491799999965 34.7409143499999971
 40.5474925600000020 31.7074601899999990  7.2834451900000001
 12.8633917100000001 45.0245311700000030 27.2953630999999994
  3.1676516200000000 38.7207511800000006 29.6650149100000000
 29.9055357400000013 22.3391319000000017  3.7898947500000002
 46.7610673499999976 13.2589483900000005 43.1456381400000026
 48.7402578800000015 27.5142058899999995 31.2583230599999986
  8.6356381700000000 39.1707115800000025 42.1494514600000016
  5.8307635900000001 47.6435863199999972 45.7552283300000013
  8.1225155000000004 15.1179399900000000 37.2173739500000025
 12.4040409700000005 24.7166626700000016 12.9495554199999994
 43.1779410400000003 41.6551020899999997 47.3008079199999969
 34.6787264000000022 45.3546612499999995 25.7916318800000006
 29.9570717799999997 38.5053316799999976  9.1095057599999993
  3.4632938200000001  7.5792859100000003 35.0583076599999970
 24.9769093600000005 36.9155884700000030 40.2953471499999978
 43.8995123799999973 19.1045915999999991 40.8710711800000013
 20.0933659099999993  9.2008109200000003 38.0292119599999978
  6.9654712300000003 18.6748837700000010 18.7714777700000006
 42.2269500499999992  8.3495290099999995 30.5339996400000011
 34.9319150099999973  0.6956327900000000 41.5003731999999985
 46.7724397300000021  4.3945384499999998  9.0076705500000003
 41.9189049800000006 31.0360403600000012 22.7304030499999996
 29.8841427899999985 12.7879017600000005 26.2648095499999989
 32.6541053300000002 17.5482532099999986 33.4916856800000033
 44.7611590799999988  0.8006961800000000  7.3006756199999998
  2.4550983700000000 12.8382940100000003 23.2074898300000001
 48.2815896899999970 18.6778381300000014 18.4254862199999998
 27.1469349599999994  8.5359292799999995 13.3634813700000006
  0.0313146500000000 26.3053320500000005 13.7157152000000000
 20.0253749399999990 16.4765485399999996 21.3513223299999986
  1.6744355200000001 42.2378069000000025 40.8205456499999997
 20.9107787400000014 47.4583599899999982 32.6564148200000020
  6.3639141900000000  8.3057605199999998 44.9171175700000020
 21.9949837200000005 19.6913450099999991  2.4356111700000000
 35.3168713800000020 20.6572699499999999 36.7359769500000013
 21.5645462600000002 35.3290049300000035 24.5858431899999985
 14.2665081699999998 27.2028533599999989 48.3564814799999994
 27.3841971199999996 46.2009846899999985 49.9497077400000009
  4.7380325200000000 32.1125193900000028 15.1133564600000003
 10.1820300100000001 29.3784583800000014 13.7500308499999999
 46.7685263099999986 38.6217311899999984 15.4361153800000004
 34.7911779200000026 35.3273556999999983 46.8671911799999990
 46.8822415200000009 49.8332352099999980 47.1842481999999990
 25.6594544400000011  8.4507664899999995 32.0324608999999967
 19.5702999899999988 18.0319678600000017 13.2838028300000008
 10.8741841800000003 12.4135053099999997 33.7837046900000004
  2.7246712000000000 43.5488939999999971 26.2613802300000003
 25.0175915499999988 20.6612516799999995  3.6569125699999998
 11.7296220299999998 39.7574979999999982  4.2688810300000002
 47.0834484100000026 31.5173889699999989 12.7563466800000000
 45.9187230499999970  5.9783718099999996 28.4950289800000007
 15.9520250600000004  5.6851608499999999  0.4983594600000000
 25.9275171799999988 13.7812336000000002 21.1931818300000003
 43.8069555900000012 13.5025668499999991 37.6410252599999993
 32.7115278799999984 32.6491520699999995 34.2987720799999991
  9.4623174100000007 33.1687044000000029 16.4149198500000004
 35.5579605000000001 22.6421671599999996 46.9033897099999990
  5.2709256800000004 38.4478853500000000 43.6090707500000008
 37.6521227100000004 19.2264295300000008 38.6010647499999990
 18.0951952300000016 25.9462642800000012 28.8638162600000001
 14.1598163699999997 34.0337376499999991  5.0286861900000002
 17.1287255199999997 32.4898291100000023  6.5577926800000004
 16.8216454199999994 21.3945341599999992 27.9356757800000004
 14.9027918499999998 21.2226814899999994 39.6078394900000035
 38.9583258400000005 22.5823467200000003 41.5013849899999983
 13.7775748599999996  9.7006159200000006 38.2517359200000016
 46.9255482499999985 27.6894895299999995 27.2504567299999998
 48.4262536299999979  0.0447132400000000  1.4954113400000000
 33.3784055599999974 40.8622231800000009 21.3849149300000008
 16.2651920300000015 19.0824502500000008 18.7413003600000003
 35.0351770099999982 36.2200170500000027 49.8264894100000006
 33.8075499199999996  3.4915184600000000 31.9507881400000002
 46.8963518500000021 36.9855286000000021 15.7792259799999997
  1.4510116799999999 37.1532712799999985 35.0303532300000029
  5.1466578900000002 49.8791143500000018 18.2749315699999997
 46.7749234500000028 46.1384354799999983 48.6851791599999970
  1.8061627400000000  6.1771870599999996 19.9829502099999985
  3.4442202399999999 37.0096357700000027 20.9484059500000015
 29.8587363600000018 35.7819775999999976 37.6974972100000016
 31.8356765300000006 12.2155230100000001  6.2952014600000004
  3.4510171100000000  1.2444954399999999 16.2348118200000009
  8.4822933900000006 11.9050520500000001 38.2098508500000023
 42.9631992899999986 32.4904820799999996 17.5323189799999994
 15.6850691700000002 18.9575821500000004 20.0831654300000011
 37.7614530700000017  6.7417100599999999  7.9209262499999999
 27.0075544399999998 15.9674311099999997 14.6147180199999998
 29.5657350100000009 11.3083482100000001  9.4083219800000002
 25.6675353900000012 44.2672307099999998 49.3465609599999979
 17.6500759400000007 44.8263278200000030 46.0916823900000026
 12.9059659599999996 10.5699066399999992 48.4208224300000012
  8.7626380200000007 23.6571823399999985  6.2635160100000000
 20.9135472200000017 43.9880818299999987  7.6913729799999997
 18.9056942100000001 48.0025784099999981 29.3353422700000017
 39.0975007999999988 11.6958941900000006 22.8935725400000010
 22.2736714999999990  3.5968621500000002  2.4621735299999998
 31.7505832699999999 32.0529794699999968 14.4259565799999994
  7.0522566400000004 27.2772792399999986 49.2321667000000005
 45.0257689399999990 48.0986352299999993 43.7623149699999985