Na Cl 
 1.0000000000000000
    50.0000000000000000    0.0000000000000000    0.0000000000000000
     0.0000000000000000   50.0000000000000000    0.0000000000000000
     0.0000000000000000    0.0000000000000000   50.0000000000000000
 1800 1800
Cartesian
 33.2407960399999993 28.0589725700000017 37.1520176699999993
 13.9609845400000001 42.2671976700000016 34.7912330999999995
 36.2547804499999984 34.0950861500000002 36.1129216300000024
 49.8738681399999990 30.1018815400000008 22.3230343200000014
 33.2377879100000015 27.5014097900000003 16.1943916299999984
 29.1401368500000011  8.2799853799999994 11.7142742299999991
 31.8070196199999984 30.5788021900000011 37.9284239799999980
 13.0218042100000009  7.4633933900000002 37.2526575799999975
  5.4158661300000004 24.4620585199999994 33.8175952799999990
 22.3239127199999992 48.0010595600000016  3.8080736499999999
  2.2939142299999999  3.8164906500000000 43.7582778200000035
 45.3754042300000009 24.4188158199999990  7.0374667400000002
 28.7035738699999996 20.9660621899999988 26.6072663799999987
 38.3261079600000016 46.8965051899999992 39.5627520000000032
 31.1728615200000014 22.2836105000000018 20.6417136700000015
 25.2816330499999999  8.4067157300000002 41.6712337800000014
 18.4261963100000017 39.0813654499999998 40.5090688000000014
 35.9192965700000002 45.6174847200000002 43.0656618599999987
  4.5789469100000000  8.3606404100000002 17.2833010400000013
 30.4405825800000009 14.8714556899999994 44.5557711900000015
 48.8463120799999970  9.9670654899999995 16.4697033200000007
  6.3036942199999997 46.1887309800000025 44.0015399099999982
 33.8812709500000011 42.5208198600000031 47.4193370699999974
 26.7980618799999988 45.0259499000000005  1.1399623200000000
  9.3467874000000002 41.4558827800000032 49.0219460799999993
 11.8477593900000002 25.2921176999999986 34.6221154300000009
 43.8939500600000017 25.6186107999999990 21.9917010600000005
 14.5197462399999999 33.3749853200000004 33.3783236000000016
 39.4847821899999971 20.7342017299999988 29.7284857000000002
 46.6592317200000011  1.7075158200000000 48.2183832699999968
  6.3675632999999996 19.6363205900000004 27.6401226800000011
 47.5418328800000012 35.5851499300000000 29.6148678899999993
 37.0846128299999975 31.0877731399999995 42.2032438399999990
  9.9192442900000000 12.7387556300000000  0.2658847300000000
 18.7245814899999985  4.0411282999999996 19.2434188800000001
 24.1410600399999993 38.7960363600000022 44.9830906400000003
 30.8044575499999986 30.5180950499999994 17.6234469099999984
 47.2722711700000033  5.0616001700000002 20.3141141099999984
 19.3158114199999993 40.8425125699999967 40.1087916399999997
  8.4611104600000004  5.8835144399999999 34.2272182199999975
  6.8565472300000003 37.9892843700000000 35.9024393999999987
 12.2990043399999998  9.3659851700000001 14.1128256099999998
 44.2599455800000001 26.9053618099999987 48.4159125500000016
 26.2421831800000014  2.3727796099999998 29.3068238000000001
  9.7875595600000000 49.5135316599999982 23.9266482300000014
 35.1767902899999996 16.3143905400000016 45.9618416100000005
 30.6719903000000009  4.1410488599999997 48.6081252299999989
  6.7607973299999999 28.7206716499999999  8.3284275599999997
 25.8820766499999984  0.0622074400000000 45.5203648600000008
 10.7722621000000007 49.4091072800000006 18.8660810300000001
 32.2239111100000031 37.2740171100000026 14.4055542800000005
 14.1508444499999992 33.2426898100000017  9.8876423899999999
 31.6057277100000000 47.4655534099999983  3.5562105499999999
 19.2307027800000014 10.4216988500000003  7.4925380300000004
 27.0867175499999995 46.4619447700000023 35.9057384899999974
 17.7468739500000012 21.7105324700000004 38.9192468700000020
 15.7820902400000005 49.5906176700000003 19.5112504899999983
 25.5869087600000000 39.1756124300000010 24.5180747399999994
 25.2820763399999997 15.8570279400000000  9.0686566699999993
 16.9126598699999988  1.0744499700000001  8.2807233100000008
 24.1167216000000018 29.7398901000000002 38.3328846599999977
 10.7924830699999994 39.2629312799999965 42.0859675100000032
 38.8559726699999999  2.3326873600000000  5.4763878000000004
 41.6497927099999998  8.0661109000000000 17.1258756500000011
 34.5920579200000020 38.7174671000000004 24.4695457000000012
  9.6546560600000007 15.8043514300000005 23.7345046199999992
  5.8192180300000000  3.5973695399999999 10.9897854800000001
  5.3245440600000000 39.6120431800000006  9.6097003700000005
 10.2341409399999996  5.2067023299999997  9.0459940099999994
 36.0212686599999969  9.4624348000000005 35.1417320899999979
 27.0913107400000008 23.6596858700000006 48.3404250600000012
  7.5239413199999996  4.8817989900000001 48.3956330199999982
 35.4041932499999987 38.2760341199999985  5.3054962100000003
 19.4747999400000005 12.9625935600000002 12.3100192100000001
 44.4928802299999973 41.8380111000000028 21.4524774399999991
  1.7884120600000000  7.8414693499999997 41.5753844199999989
  7.4858711099999997 15.0358062300000004  6.7953202399999997
  8.9473399800000006 27.9431127400000001 39.8957787000000010
 28.3526689599999990 23.3072858200000006 25.5527422599999987
 14.9392471300000000 33.9264343400000001  1.5819823600000000
 38.3775406199999978 11.3252509900000007 43.4933952299999973
 43.4935607000000033 46.2746610100000026 38.2276776900000002
 42.5789196899999993 23.9032986899999997 42.7411131100000006
 49.8879747900000012 17.1923466100000013  1.7694857700000000
 39.7472998100000012 32.8678723800000014 10.3311083999999997
 34.9389227500000032 18.4746637800000002  3.6741397099999999
  1.2661527800000001 30.2298544299999996 23.1634862800000008
  8.7139564099999998  5.4654521699999998  7.8545543899999997
 11.4955779699999994  6.1789152700000001 49.0289544399999997
 29.6373559799999988 15.0418982000000003  9.1830134399999999
 38.9069441400000002  9.0101970399999995 34.3816540400000008
  2.4593899299999999 34.9665044300000005 32.0399066599999998
 44.7112052199999965 11.2261512400000001 27.9238386399999996
 15.9560939600000005 24.0711927999999986 14.5373756400000005
 29.6723251599999998  2.7689675100000000 38.0369656199999966
 37.2811718099999965 34.6545874099999978 39.6505489400000002
  6.7760876200000002 35.7045934200000019 37.1016707200000013
 17.7798099900000004 25.2664996399999993  4.0594977600000002
 27.9788160599999998 39.9615104700000003 33.1065182500000006
 21.2522200599999991 36.0626165500000013  4.3962841900000003
 38.3483375799999990 20.5097643100000013  7.6086834300000001
 29.1424774699999993 47.6188391399999986 29.8294864500000010
 44.1787668500000024 12.5344088100000004 15.8089143799999992
  0.4239230400000000 24.8745646899999997 16.8087603399999992
  4.8349835700000003 11.5688603000000008 37.8349941900000033
 42.7472936899999993  3.7650260599999998 28.7930344100000006
 24.5293837900000007 15.3532801699999997 42.5798728800000035
 39.9234852499999988 44.0165527600000033 36.2022419199999987
  1.0798873200000001 49.6661066099999999 38.2537540900000010
 30.8450326200000013 12.4633020099999996 20.7168500000000009
 38.0980098599999977 13.2516575799999998 20.6089572799999985
 24.7450791400000014 40.5451304699999966 42.0078108000000014
 25.2761995800000001 17.0862912999999992 19.2978428800000010
 38.8452279999999988 21.7470430599999993  2.5527723800000000
  4.4454645199999998 14.9221092300000002 45.8898272599999970
 20.3267235600000014 31.2429340499999988 49.9925261100000000
 24.3863820699999998 11.9234127700000005 46.7985036099999974
 42.4501220399999966  9.2011728099999992 44.1114748299999988
 31.5575266899999995 37.3510276399999981  8.7215020800000005
 32.2855049200000011 22.4811838799999997 41.2574907300000007
 14.6466292300000003 15.8974287200000006 38.0844536199999979
 35.4119609700000026 18.8280910599999984 43.7264017700000025
  9.6346013999999993 28.7457152200000010 29.2356534799999999
 13.6279784199999998 45.4333157499999984 47.7377937199999991
 29.0989928800000008 16.7733030899999989  8.9050966400000000
 17.9591552700000001 39.5225739099999984  5.8996343500000004
  5.1545994600000000 33.3531462500000018 16.3290403899999994
 42.1817664300000033 48.9483107599999983 24.2589012599999982
 19.3534765200000010 23.8799553899999992  0.4103092700000000
 46.0679201599999999 13.5341690200000002 18.7787490099999985
 14.4345320800000003  1.1807163300000001 44.2992767499999971
 37.9443798900000004 31.1927382000000009  6.3510083899999996
 41.3979365000000001 25.1187297200000010 20.4903483699999995
 31.2850866100000005  8.4507329000000002 31.4677883600000001
 29.1188854600000013  1.1079714899999999 21.6767845500000007
 21.7180048899999996 14.5082117400000001 39.5146448100000001
 22.6353491499999997 32.3132128800000018 38.1689380999999983
  5.3427006600000002 44.7700069699999972 49.5071905699999988
 17.3518474800000000 32.5005295400000023 36.3999318999999986
 23.6553872299999988 26.0932538299999983 49.3171447200000017
 23.2512860900000007 34.3653146799999973 27.8438321699999989
 21.2872429399999987 24.6920662299999982 49.5572092700000013
  8.0162143399999994 28.5143654499999997 40.9400519599999981
 29.4533587899999993 22.6011776699999984  7.9931054300000000
 40.1229645800000014 46.6656592000000003  9.7341080699999996
  1.1543445800000001  1.0692891200000001 21.5422467699999984
 10.5413991100000004 19.2948008699999995 37.7182968600000024
 31.4153296100000006 47.4447350000000014  3.6611547899999999
 33.0286286199999992 12.1612610599999993 44.3146100000000018
 45.6502842200000032 44.3269375699999983  2.8397142199999998
 27.0768986399999996 31.4355138799999985 36.6818410999999998
 11.7033355900000000 47.9613012200000028 35.5895357400000023
  3.3271354400000002 19.1653498300000003 12.0346009600000006
 15.5382582500000002  1.5064489299999999 18.8872274299999994
 37.6314700499999972 22.1171699100000012 23.2746801400000010
 27.5491927600000004 19.2827944000000002 35.9255397900000020
  0.5471826500000000 46.4988549199999994  6.2546801500000004
 22.4093644800000007 34.1887334800000033 10.0435205500000002
  1.4499665500000001 19.5877681099999990 11.6186447000000008
 24.5615233500000016  5.5230253600000001 25.4872836999999990
 14.7771286800000006  9.2018036900000002  4.7146399099999998
 38.9529030500000033 31.4415374700000001 37.9202319700000032
 25.3387509299999998 18.3868211799999983 27.3035381100000016
 40.5650424299999983 26.6680561599999990 10.0198742500000009
  4.0265442399999998 24.1289687199999996 35.5773148099999972
 47.9299439999999990  8.5688735400000002 17.0575839500000015
 36.8135262699999970 24.9359946100000016 49.2614364499999979
 36.9623830199999972 26.7714985299999988 48.5758026399999991
 13.5148977000000006 44.8856311600000026 42.8028953700000017
 38.2624732000000023 27.3871445899999983 45.7391628700000012
 38.1104281300000025 21.9656643100000011 26.9200486499999982
 45.2576424000000017 45.1957716100000013  5.3334804000000000
 39.8051564100000022  5.2637300199999997 17.5105230499999998
 49.3608990700000021  8.6306378499999994  5.1303758300000002
 26.2265913300000015 40.3205011000000013 16.6619791299999989
 37.8831727099999966  2.4838058300000001 45.3245672099999979
 20.0011702599999985  9.6685268499999992 48.9307604700000027
 29.2912615599999988 48.2330381399999979  2.6720128999999999
  8.5207529900000001  8.2954547900000009 21.7086089400000013
  6.5904720499999998 16.0637178499999997 32.9059605400000024
  0.4788077000000000 47.3209684500000023 23.5166876699999996
 44.9696467500000026  4.8528725300000000 12.2286183600000005
 26.3887490999999983 15.7060686300000008 21.8955302699999983
 48.1772696600000003 15.3711602900000006 43.0909299300000015
 29.2592654400000001 10.4742060000000006 39.9802395800000028
 47.8866117299999985 30.2833428699999985 22.1436957700000008
 19.0948046799999993 26.3823118600000015  7.5155139499999999
 13.2429073600000002 23.5440438500000013  4.7449703100000002
 48.7160297100000008 20.3113438700000017 22.7563493799999996
 15.9639594700000007  6.2667872800000000 25.8937912600000004
 46.9497875799999989 35.0797930900000026 36.0824564400000014
 37.8453988999999993 17.6192971000000007 27.5264075599999991
 36.3318941300000020 30.1445747399999995 39.8676558100000022
  5.6912284099999999  2.4759509099999999 13.3070226399999996
  1.1294348900000000 32.4121443700000000  0.9104361500000000
  1.7004218700000000 28.9903000099999986 39.9723220799999979
 14.8172031200000003 32.7328810599999969 41.5320102800000015
 28.4967498500000005 44.8747639799999973 10.1581333300000001
 27.7467973199999989 40.4225468799999987 31.7454521499999984
 45.8142166000000017 49.5384070300000019 42.0069895600000009
 11.4736147499999994 37.0431220099999976 33.7516197200000008
 13.4725678099999993 33.4471429600000008 46.1317641600000030
 36.5603086500000032 19.1074402600000006 38.7484938099999994
 45.9354423199999999 36.9790729300000010  7.2787470699999997
 33.9019783000000032 40.5492865399999971 11.8589390800000007
 13.1891561500000005 20.1474141899999992 17.5902728500000016
 39.7158553499999982  4.3809399000000004 30.4569482899999997
 39.9299859500000025  3.2738415800000000 23.4553887400000001
 14.7185283099999999 24.3052777499999983 48.8031135900000024
 33.9300507100000033 12.3623486699999994 23.9940392699999983
 17.8179498400000007 16.2829259300000011 17.1360273499999991
  5.2116036000000001 41.4216610100000011 23.8565907499999987
  7.7206664099999998 11.2402791700000009 15.3719687900000004
  6.6794635500000004 11.7439290100000004 30.2148671299999982
 21.2717916699999989 15.0025686100000009 48.1706050200000035
  3.3585981700000000 47.9594673000000000  4.7669456800000001
 18.0560912100000017 18.7249491299999988 10.2200468400000002
 18.3271579100000004 24.5429330199999995 43.0751899199999997
 14.7170275499999992 49.0820635800000034 22.2425963799999984
 31.3174144500000011  1.7846791799999999 45.1029454600000008
 45.2042923500000029 48.5415590699999981 37.9832682799999972
 34.7900530699999990 16.4219781100000013  4.1861525500000001
  6.6659471999999997 34.5745609299999970 44.6455553600000030
  7.8489602999999999 17.4758387800000001 16.4223937900000010
 11.1723610699999991 23.8725331999999995 25.6654183300000014
  8.6858168300000003 32.5234362799999985 21.3935145499999990
 10.7990576500000000 49.7618735799999996 47.8092032500000030
 29.2789799100000003 41.8152881500000007 39.5479627400000027
 32.6097217499999985 21.5935199900000008 22.2903960699999999
 34.6867838800000001 30.7766764600000009 13.6012095300000002
 45.5286090900000033 49.3330427000000000 40.4486197499999989
 19.9520846700000014 34.6870300300000025 34.9136952500000035
 44.4760220100000012  8.5019213899999997 41.7927774300000010
 11.2103158199999999 11.7779776999999992  2.4711610099999999
 32.8030318400000027 20.5561472400000014 37.1667157099999983
 10.9909385700000009 24.7045909399999992 10.0599326900000001
 27.2887858200000011 42.6233163799999986 20.0783442100000009
  6.7311389400000001 30.2521697899999999 48.2175799799999965
 42.8666850099999976 10.3748842200000002 20.6790701299999995
  3.1317583299999998 35.4622520699999981 14.0704926199999996
 32.7694120299999980  5.5079394500000003 21.9383553900000017
 17.9391015600000010  2.4799817499999999 31.0532488999999998
 11.9542703600000007 15.4218629099999998 45.2498853199999971
 14.8225472099999998 22.5510339100000010 15.2269670999999995
 19.6361228200000006 24.3162636499999998 33.4432084700000019
 30.0048136999999997 40.9038400000000024 20.8388838800000009
 39.1213395999999989 12.3547375499999994 46.0739903099999992
 15.5551968200000008 36.1929786600000014 45.3922715499999967
  7.9079110400000001  8.2609249600000005 41.3657190200000002
 33.6396329499999993 31.3109812000000005 43.6610399500000028
 11.0984111700000003 30.9965713100000002  9.3739970400000008
 48.7682479400000020 47.9431746099999998 30.9355901200000005
 34.4632016699999966 23.0303926499999996 21.8092696100000012
 48.3944097099999979 14.8439298900000001 31.9296926200000009
 42.3438237499999985 22.6457304400000012  6.7915499199999996
 45.5795760000000030  5.9338539600000004 30.2835621800000006
 25.8295243700000015 16.8161307099999995 28.7087996200000006
  8.7951432999999994 19.9733666200000002 42.3728450600000031
 10.4069765200000006 10.0544388500000004 34.9536726199999990
 16.3756927099999992 26.2673533200000016 25.4072126800000007
 19.0235428800000008 28.6852404800000009 12.8368173100000007
 48.3885076400000003 15.6478300800000003 43.0800932399999965
 47.1271305799999993 15.6836534899999993 45.1642456399999972
 25.4765419900000012 34.2411818400000030 41.5431429799999989
 15.6041076499999996  8.2372390899999992 43.2774466400000009
 14.0457307999999994 16.5975308400000010  4.7007536999999999
  5.5674411800000003 21.9839929900000008 34.9702472000000029
 44.9447408999999993 36.2602953299999982 26.7835599299999991
  1.2916799600000000  9.2651561400000002 19.4792641400000015
 37.9924303800000018 38.7773901199999997 31.5956995700000007
 28.9227348199999987  4.4041004299999997 19.7159021999999986
 15.1681943900000000 31.8430576199999997 36.2693455499999970
 28.8906117599999988 14.5118000299999999 49.8230810499999990
 26.5232227599999995 25.8049833699999986  4.3555138199999996
  3.1207513499999999  0.4680139700000000 15.9108161500000005
 13.0870913699999996  4.7446253000000000 42.9174727300000001
 13.9641085900000004 44.7731350800000030  2.0812173800000000
 29.0205886000000000 49.0326407800000013 41.5936342600000017
 14.2110653500000002 45.3753720899999990 23.8787963400000010
 30.9300848700000017 41.9363424100000017 24.1069594699999996
 15.6678849400000004 30.1422513199999997  0.8179863900000000
 47.8972880900000035  9.7208588000000002 28.4737905900000001
  8.9983668699999999 35.5519603600000025 21.7978339699999992
  6.1956073900000002 29.5733782400000003 39.7680253199999996
 31.2015674700000005  4.7444480000000002 39.9375826300000014
 30.9512730800000000 48.0467093199999979 21.0434875300000002
 27.8949439199999993 30.3224463600000007 29.3560106000000012
 36.4701177399999992  3.2688497999999999 39.5586668700000033
 12.5140805999999998 24.1526775399999991 34.0514271899999983
  2.3368016100000002 24.6247081200000011 17.4693740300000009
  7.7693006799999997 28.6364589000000009 42.9647656599999976
  8.8164316800000009 27.7671855500000007 33.0876027199999996
  3.3388396500000002 15.8780106199999995 11.7244641800000000
  3.0695015300000001 39.1122920600000015 10.2926873400000005
 39.1961520699999966 19.7278745300000011 16.3872785900000011
 20.9913336800000003  1.3451087300000000  7.2424164099999997
 23.2925618599999993 28.0872507899999988 12.4239436899999998
  9.2215545999999993 36.6681354500000012 31.3525484100000007
 42.2811092500000001 18.6032320899999988 14.5217787299999994
 17.5351305500000016 12.9391214899999998 17.8148329600000004
 13.8975146100000000 25.5279804699999993 48.7677572500000025
 39.6961379999999977 22.9913342599999986 15.3549386499999994
 20.4538783200000012 18.3328465399999985 20.1518164800000008
 41.5795938799999973 28.2342926299999988 33.7561734200000032
 40.0066327999999984 41.4773949799999997 10.5775093899999995
 26.2003880600000016 49.9220938699999977 40.6315961999999971
 45.2374037800000011  5.0453282200000000 46.8314232999999973
 45.7313836499999979  7.3650598799999996 34.5613916100000012
 23.3087889699999984  0.8162622300000000 18.9193732700000012
 27.9064799100000016 24.2078312599999990 11.0199071100000001
 11.5787180700000008  3.5145355899999999 18.7996116300000011
 15.0727016000000003 26.8957746799999988 37.2850569599999986
 49.9523340499999975 48.8783638199999970 48.6607574399999976
 41.3502703400000016 23.9935716700000015  9.9591011500000004
 32.6129619599999998 26.0517451999999992  1.6816326699999999
 13.2002135799999998  5.9896393899999998 17.8692946299999988
 29.2348358499999996 49.8860479599999991 34.8080045700000014
 18.1328175700000003  8.2648550899999993  7.4194929399999996
 49.4177824599999980 14.6697750599999992  4.9094606699999996
 13.3054461400000008 24.6332617599999999 11.2303856799999995
 49.0921448699999985 41.6787950300000034 45.5080411100000006
  3.6470083299999998 45.2690089800000024 36.2339233699999994
 33.5500504299999989 25.6975421799999992 48.5914220599999993
 26.0304972700000015 44.5675339100000016 46.5423561599999971
 37.3800089100000008 45.8096804099999986 23.2986135300000008
 29.7975717300000014  7.7879840500000004 42.6480029200000033
 34.9850928099999976 44.4548713499999977  3.0227511699999998
  3.3788631200000001 38.5524918699999972  1.7309222799999999
 41.6108340899999973  3.2885795500000001 21.1564539300000014
 26.5212548599999991 42.7303555599999996 19.0859313899999989
 27.2488890300000008 22.0779988799999991 14.9271504600000000
 30.6177095399999999 41.8442720700000024 26.6807513699999994
 23.3882227799999995 35.8602443400000013  3.1266413599999998
 49.4614108199999976 47.9317026200000029 38.1259396800000019
 32.6682854399999982  5.8733280299999997 13.0242167099999993
 48.0102472499999990  8.2254696900000006 45.4690941599999974
 49.0655275299999971 44.3211802499999976  6.0764412900000000
 26.7487435699999985 16.1332250399999992  1.1132725500000000
 10.7717808900000005 41.3213372900000024 37.7158138799999989
 39.6839547599999989 18.2276874199999988  2.7424125500000001
 41.7276930000000021 17.3362937600000002 21.0892306699999992
 46.6999361499999992 35.8268881600000029 42.5093325300000018
  4.3518077599999998 40.8330263300000027 30.6735189499999983
 29.8330625400000002  4.2821522099999996 20.1322330700000016
 12.4412433500000006 49.9770423599999987 14.1509951899999997
 35.7760855399999969 38.6696643399999971 21.0485222400000005
 12.5132570300000001 10.3109608700000006 46.3193171899999996
 38.7639674799999980  6.0013883100000003 15.3332868700000002
  6.5523608199999996 25.5282219599999998  2.8265123499999998
  5.1930690400000001 29.9114246100000010 21.3133541499999986
 13.5432002699999998 20.5668762899999997 17.4897853099999985
  0.8217617900000000 11.3503594900000007 15.4920083300000009
 24.1840190399999990 10.8079494300000007 49.2060032699999965
  5.2969075999999999 25.1260279599999983 43.1518598199999985
  3.3079862400000000 47.3246973199999985 36.1879047899999975
 10.1157607800000005 15.5914137000000004 44.8900217600000033
 16.5957745199999991 25.1824280800000011 41.0687910099999982
 43.1705360999999996 17.2001781300000012 33.3937552900000014
 48.8451809800000021 40.9568145599999980 11.1823035700000002
 40.9760824800000023 35.0182889200000034  2.3818657499999998
 32.0176800200000002 21.1480348700000000 35.0220639200000008
 15.8282847499999999 25.9817096300000010 24.5937394599999983
 46.9790343399999983 26.6301758500000005 23.3654748800000007
  3.5362362400000000 33.5225065899999990 12.7681918000000003
 44.9996431799999996  9.0029271600000005 12.1967684799999994
 41.0877882200000002 12.4566616799999998  9.1128243599999994
  9.2390883099999996 31.3571564100000018 19.7277288999999989
 13.9395816099999994 32.5480919000000029 35.7805922300000034
 14.4136573499999994  0.3390612100000000 48.6017266699999979
 49.2202226100000004 44.2813540300000028 36.7172100499999985
  6.1493429199999996  2.0063743000000001 21.1328678399999994
 30.1097820899999995  5.1075630800000003 42.8127613099999991
  4.0793673899999998 11.9276444500000007 17.9202429300000006
 35.5229836600000013 34.7863540700000016  4.2528225800000001
 27.1891478999999983 18.0088248399999991 24.3191204100000000
 31.4568099200000013 44.6044038000000000 16.2147082000000005
 20.6007144500000017 36.2077776499999970 44.1189824300000026
  7.7377737499999997 48.7634764299999972 17.7483253999999988
 46.1049341299999966 35.6279997099999974 49.7911060500000033
 39.1193164700000011 28.3519023499999996 10.4227341100000004
 24.8921221700000004 11.8973174400000001  8.2142487699999993
  6.8790307100000003 15.8690886899999999 11.7735770800000008
 28.5100149099999989 17.8206318800000005 11.3600736300000005
 28.7575061299999994 27.4055842200000015  5.6539938999999997
 26.6755517500000003 35.9982009900000008 21.7640589300000009
 38.5384793999999999 16.2233404000000014 15.6820345999999997
 17.9554815999999988 27.7791728599999992 34.5583046899999999
 21.4270045099999997 23.6648823700000008 35.6780101700000003
 40.3169461700000014  6.9143022399999996  8.6778195599999997
 48.1133706199999978 41.4199438099999995 44.9956801499999983
 42.3962202599999998  3.2738866500000001 24.2129812800000010
 47.5764205700000034 16.9004662299999993 46.1358837800000003
  5.7986322100000001  7.6115852300000002 27.9128888300000000
 31.9225426900000002 22.1750109100000010 45.4083544200000020
 28.2127046200000002 20.9264771900000000 11.3020944199999995
  4.3009654599999996 36.3265514799999991 40.3506836299999989
 23.9398422300000000  6.9283542499999999 44.8498602000000020
 41.6003834600000033 27.6448961199999985 27.7691615200000008
 16.2976267099999994 14.2121569599999997 13.7219469099999998
 24.7617615499999992 20.9263744600000017  9.5755973599999997
 37.0649010799999985 49.7924752500000025 12.1315813200000004
 45.4872691099999997  4.5318502699999996 16.8075232800000016
 34.0438423100000023 24.8577685700000011 34.5163169699999983
 15.7393324499999991 30.9604787600000009  2.7665945199999999
 48.1541791900000007 27.2896836399999998  7.7129476300000004
 31.5107736400000000  1.5725970700000000 30.6390247900000006
  0.0896725100000000  7.1258848800000001 14.7471765599999998
  5.7964281000000000 20.5670316100000008 20.1002707799999989
 25.2509969400000003 43.5055776499999993 48.2435114000000027
 28.6960578700000006 44.6445491599999968 40.9377416100000033
 40.6232190300000013  4.4421947599999996  9.9673008799999998
 20.4259329799999989 48.6556005899999988  4.6791005700000001
 41.6432272099999992 47.7197827999999973 26.3895087100000012
 28.4728334899999993 42.9124388099999976 29.3591003099999988
 38.3988604099999975 19.6469585299999991  6.4319631299999998
  2.0044058800000002 38.0496310199999996  0.1486327000000000
 48.0698463499999988  9.9076011000000008 17.0517405300000000
 38.6031576600000008  3.2708118700000002 22.5350737400000014
 46.9844218300000023 17.1777463099999999  6.3822866400000002
 17.0916377900000001  9.1563015300000004 39.9597937699999974
  4.2538253399999997 44.0424514700000032 21.4818123400000012
 44.8199352000000033 38.6508938799999981  5.5734471699999997
 22.9265471100000013 26.4772707300000008  3.4890818900000000
 40.9993109899999979 25.4198927300000008 32.1371430900000021
 28.9639365300000016 46.8812525000000022 33.2108095399999996
 24.0760109299999989 45.5156444100000002 31.4355742800000009
 37.6969211899999976 22.1544577599999997 49.9715899099999987
 22.5116462099999985  3.2378277999999998 18.1718165800000016
 13.7213239700000003 14.2920360700000000  6.2502859400000004
 48.5558309600000015 27.8509204900000000 40.4206271199999989
 49.4800709200000028 11.5519281800000009  3.2568596799999998
 38.0406153599999968 48.6222974699999995 44.9536065100000002
 35.2645830599999996 41.8475706299999999 32.1196206500000017
 34.4643137099999990 41.7205450800000008 47.2011343100000005
  9.4643436600000008 17.2239762799999987 33.3693566199999978
 38.7766938600000017 19.8937122600000009  3.6219031600000000
 23.3263544100000004 46.0386502500000034 21.5948157099999989
 44.0676598499999983 45.1591816500000007 40.3659502499999974
 30.5257931300000003 47.0050703300000023 14.2169599299999998
 44.4454673700000029 44.9700066099999987 10.9010906900000002
 14.6312954000000008  8.1817414199999998 10.5280190800000000
 44.4166024000000021  9.8364640100000003 21.4505708400000010
 19.7441257599999993 39.5216959700000032 41.1441890700000030
 10.3857237399999995  2.8589458500000000  0.3028185100000000
 39.4707113899999982 34.2463670899999997 28.6917212799999994
 21.7595288400000015 12.4012113399999997 27.1589472299999990
 10.4261246599999993 31.8770907000000001  8.2634560599999993
 33.9059491300000033  7.2870851300000004 24.0397722999999992
 36.4531098599999979 17.4173650199999983 33.6538576399999982
 20.3854308800000013 17.9367856900000007 13.5570995100000005
  4.1714764899999999 10.0053978000000008 10.7207680199999995
 33.9480633800000007 15.1011817199999996  5.5612144099999998
 17.3305658899999990 24.8209756000000006 16.1368811299999990
 12.5612281600000006 16.5616081400000006  0.9480193700000000
 33.3615976500000002  8.3717726700000004  4.3832237899999997
 18.8421589599999990 30.1657129200000007 45.1370793399999997
 18.8924204899999992 24.9111400299999985 31.5305424999999993
 33.8277991599999979 43.8204030699999976 39.5144149099999993
 18.7714706500000013 42.1072065999999978 45.8213704200000009
 19.7725700499999988 17.5848965799999988 49.3569003899999998
 41.4248223800000019 26.9898116500000000 17.7643703600000009
 15.7726612500000005 41.1175970899999967 13.4542547700000004
 25.6599104199999992 16.1143472699999997 33.8346106899999981
  8.3017933700000004 28.2411473000000015 48.9626768299999995
 15.7094366500000007 28.5017025299999993 28.1144621400000005
 19.7652664099999988 44.8325992500000012  1.4956583000000001
 37.5291204999999977  1.9281649000000001  6.6675410599999996
 11.3626576299999993 22.1868117900000001 43.7457694599999982
 35.1473863599999987 22.1226081599999986 14.6753248599999999
 48.1849121400000016 43.8183152100000015  4.4237143799999998
 49.3676625399999978 22.3043468400000009 19.1573718399999997
 27.9485469799999997 31.2291166400000009 17.7634103100000011
 49.6370357500000026 49.6597823199999979 31.9614852700000007
 26.6829238400000008  9.9009745999999996  5.6801580600000001
 16.4165439599999985 12.8543798900000006 43.5627634800000010
  9.3658754399999999 12.2685416899999993 47.3801696399999983
 18.5111865500000015 17.5123247900000010 29.6426870099999995
  4.6405213900000000 43.2430128499999995 35.3170295400000001
 23.3154962599999998 13.5457197699999998 12.9122298000000004
 15.8463127299999993 28.9780302300000017 33.7541445100000033
  5.9067506099999996 24.7575657999999983  0.4084395200000000
 14.6430909899999993  6.4303271700000000 24.5088054000000000
 19.4923264500000002  7.5306971100000002 18.4263728899999997
 42.0491246699999976 19.6383326899999986 11.4574729299999998
 15.7475100900000005 18.4020885599999993 33.9024025200000025
 47.6791089399999990 42.7839375100000012 19.6376758299999992
  0.4175964500000000 18.5435553400000011 11.5346002399999996