Na Cl 
 1.0000000000000000
    50.0000000000000000    0.0000000000000000    0.0000000000000000
     0.0000000000000000   50.0000000000000000    0.0000000000000000
     0.0000000000000000    0.0000000000000000   50.0000000000000000
 Na  Cl 
 13900 13900
Cartesian
 29.2387040200000001 14.8985234400000000 49.4834416300000015
 18.2034933800000012 46.1132233900000017 24.9455902099999989
 10.5347319600000002  7.2399763699999999 32.2827782600000006
 26.6542700000000004 28.3159078199999996  5.4627823199999996
 12.9824575600000003 46.1641485299999985 30.8443761599999995
  1.4300779400000001 35.3200151699999978 23.4950454099999995
 31.2281784999999985  1.9960154800000001 47.0321531199999967
 19.3974221000000000 12.4732056900000003 37.1680714100000031
 33.7762387200000020 27.2441015499999999 41.6147052000000031
 18.3503611599999985 14.5199563000000005 36.9054604999999967
 20.0745549799999985 43.0456243699999987 17.8087124000000010
 11.0292823299999991 19.1481843199999986 23.5338901699999994
 34.0921625699999993 36.9762361900000016  9.6016794999999995
 25.4272783500000017  6.2672727300000002 34.0527812200000000
 25.0939268300000009  3.6281814099999998 28.8449866399999983
 47.6904010900000017 32.5710441399999979 21.5388111600000016
  2.7992293500000001 46.6476594100000028  7.2116741199999996
  6.6070115899999999 44.0438317600000033 44.6803447799999987
 42.5546597700000007 16.1666782900000001 13.3619880599999998
 24.9333223900000007  4.3494251300000002  0.7882340600000000
 47.8498162200000010 11.8612533300000003  2.0846461000000001
 36.6469280999999967 24.9205177300000003 39.1414885100000021
  0.9974309000000000 13.8211616399999997 42.2636486999999974
 25.1437337499999991 40.7331155299999992  1.4727750300000000
  2.9299868500000001 44.2890169100000008 15.5071599500000001
 28.8372480399999986 17.6278835500000000 21.8387869300000013
 44.4919129999999967 25.5818595100000010  4.3127252699999996
 33.9736807600000006 45.6524511499999974 30.7465556000000007
  7.3599490400000001 48.6634671200000000 36.8919130600000003
 42.3827767599999987 27.3289540399999993 17.7306245199999992
 48.6062466200000003 25.1868758200000009 15.8219656700000009
 19.7770961400000012 43.6548578800000016  7.1963155199999997
 48.4749614500000021 18.6770679999999984  5.4818454200000000
 33.3760143900000017  0.6738170300000000 24.8427997699999992
 32.9357205299999976  0.6550233300000000  8.9771888700000009
 29.6133822699999989 12.1157556599999996 29.5053705899999983
 46.7635789200000005  5.4708623100000002 48.7828777200000019
 43.8257829000000001 29.9332416099999996 37.9916674600000022
 25.9550580400000008 26.6604952200000014 32.9431165900000025
 24.9604636500000012 10.5124879700000005 33.3852737599999969
  6.2960826100000000 18.2604643399999986  3.6241093400000000
 10.4057353700000004 39.1944255399999975 40.7100452299999986
 13.7301801799999996 13.1382311499999993 14.2509761600000004
 16.1562633099999999 38.3174131999999972  0.7637123300000001
 35.7132110200000028 31.9376341900000007 25.8178556499999985
 20.6998392600000010  2.1983929000000000 48.3894512700000021
 31.5075760600000017 47.8308759600000002 43.5322926999999993
 47.2434897699999965 21.3324995299999998 35.3196765499999970
 17.8037096800000008 26.9486407899999989 25.8057152499999987
 16.6562183799999985 41.0623759699999979 35.3529079099999990
 26.3231602400000000 13.3541320700000004 42.8977771599999969
 32.9407770299999996 35.6396105299999988 44.9341884800000031
  8.9057675799999991 29.2357794099999992 15.7446199900000003
 19.8281190699999996  1.1971813600000001 21.0271715800000010
  3.6726612099999998 26.4170390700000013 41.1756104700000023
 38.4852509400000002 21.6125928700000003 42.8483066599999987
  1.4900033800000001 42.4868661599999982 26.7596225099999998
 48.9756029099999992 32.9580990500000013 26.7707640200000014
 36.2308790800000011 32.3847700800000027 40.8306668199999976
 41.0173059199999983 27.8605411200000006  2.1145899799999999
 39.9137769499999990 30.8492758900000013 33.7799179300000034
 39.0806363800000014 28.2557137699999998 43.7812902200000025
 32.1447900599999983  7.4866159200000002 27.5536925400000001
 44.9105658300000030 11.8799248300000002 15.8966177000000002
 24.4536575999999997 42.6232414300000002 18.8186900799999997
 35.7241373000000024 15.5755624899999994 28.4788469000000006
 43.9798235199999965 18.8938447099999998 48.8480904099999975
 39.8555783700000035  2.7057326599999998 25.2488909399999990
  8.1100400300000004  5.4428551100000000 28.0658986100000014
  3.5579121699999998 47.8298213300000015 25.8071316099999990
 40.4609031199999976 26.3987922200000007 34.5008963200000025
  6.5644185999999998 28.1834449300000003 29.1589126800000003
 23.8454550199999993 20.5624372099999988 42.8821811199999985
 20.8180612099999998 39.1546725700000025 22.5819018800000002
 34.0248544399999986  5.7285616900000003 29.9363230000000016
 39.7807094500000034 44.3836484099999993  5.9787903000000000
 35.5285870299999971 28.9622293199999987 18.1882175199999985
 39.3719190699999970 23.8437795000000001 42.4019866599999986
  0.1897737900000000 39.5280051499999985 47.1824922099999995
 46.1466072799999978 36.0285680200000016 32.1427295399999977
 22.8553232599999987 29.4180484399999997 29.1401189199999990
  7.9786701600000001 47.5094307199999975 41.0021151099999983
 22.5487231399999999 26.3897836099999985 33.0931305800000004
 46.2456691300000031  0.9610581400000000  2.5042414200000001
 38.7855648000000031 18.9876119199999991 24.7935881000000009
  5.8352342400000001 22.7818183500000018 44.0209650199999984
 10.3590472400000007  4.5069908500000002 48.9952351000000021
 12.9162617599999994 33.6113222800000031  5.4935572500000003
 30.2166363099999984  1.0065164000000000 16.5210609400000017
 19.4712206099999996  2.8048149300000000 40.5245673599999989
 46.4035620000000009  4.6664749099999998 29.4437469400000005
 11.0547418799999999 47.0467058899999984 13.9859402399999997
 11.6975876999999997  1.3565122599999999 48.9015905600000025
 39.0326210500000030 21.2619527300000009 49.6396038399999995
 42.8218174699999992  6.2862054199999999  2.2545633399999998
 42.4460258300000035 40.3561242999999976 15.3811840600000007
 11.5605719699999998 48.5330564200000012 45.0792440700000014
 46.8550105599999966 42.1624223399999991 23.8323227099999997
 49.8478671800000015 43.1036404299999987 42.8847101899999998
 13.3242466099999994 40.6127463300000002 28.4275414300000016
 31.6888504799999993 44.5100327899999968 30.1211488100000011
 46.1480627500000011 10.4906677800000008 16.6533498199999990
 42.8503760600000021 36.2703883699999992 46.4173743999999999
 36.8114572400000029 40.1618707200000031  0.5611587300000000
 31.3948060499999997  2.5053362600000000  7.1865328899999996
 34.0582047299999999 16.2468669500000011 11.0929060499999999
 38.4720599699999966 49.9119003100000000 19.3084599300000015
 17.2860557999999997 26.7398178500000014 16.1185530300000011
  4.5208125600000004 31.2967448200000007  4.3901484000000002
 35.2241830399999998 12.8442958800000007 24.0807805799999990
 25.6791881400000008 40.1150777000000005 14.1108343699999992
 10.7932166699999996  1.5925934100000001 16.7174082599999991
 19.4805587299999985  9.7505195600000008 26.9822069300000003
 39.9519339900000006 22.1544951999999995  0.6008300000000000
 48.1498129200000022  3.9057322800000001 43.6424232299999986
 48.2072119099999981 18.6106168499999995 38.6374295900000035
 29.2790671700000011 43.2819497500000026 39.7294607700000029
 33.0471010999999990 22.6282424400000011 12.8706871100000004
 17.6383017600000009 46.9377550499999998 32.8491506599999994
 45.6750628799999987 10.7817420100000003  8.7379413499999998
  8.5802101999999998  7.5928914900000004 13.7272080899999995
 13.1864293499999992 24.3181523999999989 15.1873535099999994
  3.8504117899999999 13.8709291599999993 28.7064719799999999
 19.6746452299999994 21.7624436000000010 11.3895870800000001
 24.7900505699999982 46.3798722499999982  6.5128523400000002
 11.5093137900000002 37.0368511799999993 28.3578180800000013
  9.8485378600000004 24.3758035500000005 34.1302170299999972
 26.5576976699999996  5.2247530299999996 12.4242414300000004
 14.2257350999999996 41.9298741899999996 15.3955599099999993
  3.1754611100000001 19.9748334300000003 17.0255169100000003
 47.8627380900000006 29.0390870899999989  9.9367248900000007
  6.5351791700000001 36.7563274899999968 13.5960575000000006
  8.9384422400000005 28.3988055199999998 48.7243861199999984
 10.7574968200000001  1.2490255299999999 42.3720798900000020
 47.5466865599999977 17.1609619900000006 24.2882417400000001
 12.4789160999999993 33.1428376400000033 31.6722383600000015
 15.3101792400000001 18.1824824599999992 42.9827465899999979
 11.0218976699999995 45.0340987399999975 38.0975111799999979
  4.8703987399999997  6.7916347699999999 47.0055404800000005
 22.1188536499999984  1.5732661100000001 41.8835608300000004
 37.0067871999999980 23.0725485900000002 30.3242175699999983
  9.1247800300000002 10.1779884900000006 11.4526169400000004
 34.1329575000000034 22.6166634000000002 18.2617543799999993
 25.3058914199999982 16.1171177900000018 30.3987685499999998
 12.1030193599999993 15.4463449799999992  6.7200751800000003
 44.3035059600000025  9.0246394599999995 27.1153226600000004
 27.2279820100000016 20.6935850499999994 47.0839926499999990
 40.6644580399999995 47.5462390100000007  9.6390384999999998
  3.3200573400000000  0.2037544500000000 24.5010460099999996
 39.0803615299999976 23.6361993099999985  3.6018387199999999
 36.1033644500000008 39.2462481000000025 11.6918100099999993
  4.2508356799999998 43.7952042300000031 15.9974861700000002
 19.7501125399999999 40.1414123599999968  6.7174516899999999
  0.2105241900000000 38.2800196700000015 22.2906080600000003
 38.2497384899999986 13.3547286300000003  2.9241388200000000
 46.0011672400000009 41.6178745899999996 21.6181956100000008
 37.0136163100000033 37.8493843299999995 34.6024523700000017
 13.4168990699999995 47.8226986499999995  6.0961613699999999
  8.1841334700000008  0.7312953200000000 40.8805150299999980
 28.8160476699999997 11.3132484099999999 41.7659883299999990
 10.9659447399999994  4.6332212699999999 20.5498046099999989
 30.5660879399999992 24.2399769499999991  1.2925690500000000
 24.2080429700000010 14.5781658899999993 15.2340973599999998
 39.4742715599999983 44.0820906300000033 37.6971910399999999
 26.6898387499999998 26.1198188800000004 45.7958582300000003
 40.9892774400000022  6.7858969399999998  0.5698010999999999
 26.6471323700000013  8.3537111300000007  0.8230132800000000
 32.3841182000000032 29.8745325000000008  1.2676843000000000
  5.9700002899999998 37.7949103400000013 19.0581236599999997
  9.8843352000000007 26.0216792699999999 46.3634924200000000
 31.2171830899999989 17.1962626599999986 17.5865120099999999
 26.5073579899999991  9.1656698399999996 47.4130384400000011
 20.9370259999999995 38.5959677999999968 32.4308878699999994
 15.9323644400000006 25.2491982999999998 13.2758350600000004
 26.9599190100000001 15.3588134400000005 35.5774882400000010
  0.8448752300000000 49.8180674600000017 42.2598354900000004
 11.0551611600000008  4.0935687700000001  0.6103843500000000
  8.7296921100000002 19.9352961399999984  2.5221564800000000
 39.8839908599999973 30.2343922599999999 49.4306720800000008
 31.3056327500000009  3.7697105500000001  7.5251352100000002
 24.9474358199999990 41.5537638799999982 44.1095029900000029
 48.4167660600000005 40.5871354000000011 47.9846672099999978
 28.3018750700000012 19.6143620500000004  8.5829844299999998
  4.2192689899999998 13.2538498199999992  7.4539384799999997
 28.3440995399999984 29.2809602499999997 25.0988800199999993
 36.8764885900000010 33.1436866800000018 45.9420574299999984
 48.1593006700000004 13.3664406699999994 49.7682826100000000
  5.5258712799999996 23.3185307500000008 14.5462550499999992
 28.9086647499999998 17.9283966600000007 22.5627093899999984
 11.4567409100000006  3.4444576100000002 40.9991275000000002
 22.3359119300000017 49.6717252799999969 32.6867255800000009
 15.7967680700000006 46.2809072800000010 43.2086383400000003
  7.5846250900000003 24.7938923200000012 10.9482012700000002
  6.4188122800000000 30.9779550300000004 46.4902328299999965
 11.3431922200000006 45.0316632400000003 47.1640346800000003
 35.9308523500000021 39.8354902999999965 15.0855544600000009
 42.9137405199999975  1.2369329300000000 39.1318358199999992
 38.7646225200000032 17.0107419399999991 49.5398678600000011
 16.5590925700000007  8.6687986800000001 46.4993800499999992
 15.0804767700000006  7.5730535200000002 30.3105728100000000
 29.7972906299999991  3.0635962499999998 39.8621903000000017
 13.8323497799999995 30.3027357600000009 48.0798873099999966
 28.6660361700000017 40.0699139999999971  5.0445847199999996
 34.3354508199999984 25.9219448700000008 20.1273771799999999
 30.8282560299999986 30.4991748300000012 49.6314114899999979
  5.1328944099999996 18.5562921100000011 25.6014522299999996
 33.6076031799999981 42.9866938799999971 27.3640732900000003
  7.9797413199999996 15.5124279299999994 17.3761808400000000
 41.4713683700000004  9.2882471199999994  7.5693497900000004
 18.0619796400000006 17.6917363300000012 45.0124536200000023
 24.3079107599999986 43.0561446099999969 44.6224380299999979
 19.3159021499999994 42.3674806200000020 20.2468113400000007
 38.1581401600000021 23.8617197300000008 43.9234279799999996
 21.0540032600000018  4.6327537599999999 12.6925211900000008
 23.2036816100000003 34.2767592399999970 39.4926244999999980
  2.5400430200000002 40.5030518000000015 34.7916488199999989
 43.2417716100000007 14.4554509600000003  2.7643112500000000
  9.7791428000000007  8.0530812500000000 48.1366287199999974
 32.3189133899999987 33.9773939800000022  8.0607022700000002
 26.2229880199999990 29.7596644499999989 20.6804379000000012
 26.1197614400000013 44.8304755799999981 15.8031099800000003
  2.8694041800000001 26.0760283500000014  9.8083975799999994
 49.7380775600000007 47.8696032200000019 44.4212924899999990
 38.6628725500000030  6.8989700000000003  0.9887419200000001
 17.7854157599999994 19.4826806999999995 45.4145016399999975
 31.5289965300000006  7.8446445300000001 44.9406571700000015
 17.6249935099999995 23.2659913899999999 31.5173600699999987
 12.2707204700000005 33.9989687699999976 20.6681296100000012
 19.2543431299999988  7.7449436299999999 19.2676491900000002
 31.3799233599999994  2.3718355000000000 13.4392514399999996
 23.4989887000000017 47.5030473400000020 33.7166800299999991
 26.2412989900000007 37.5120696600000016 15.3546975499999991
 16.4017756299999995 14.6430354200000004  5.4962499999999999
 25.4737905100000006 37.9971224800000016 17.6374520500000003
 32.6565877499999999  9.2702364100000008  4.8633874900000000
 38.9535146899999987 41.7214734900000010 12.8049580200000008
 12.9294540999999992  5.3351026299999997 17.0698790000000002
 43.4562843699999988 19.7714538900000001 48.8254807900000003
  9.8556106299999993 43.2477870000000024 15.5560977400000002
  1.3346552599999999 31.5509921300000009 27.5247617799999986
  8.6711572500000003 36.1399403500000034  3.9774219099999999
 48.5299713699999984 43.2287650800000023 45.8547832699999987
 31.3423480300000001 20.8433166700000001 13.6232878100000008
 16.5982981999999986 17.5978275999999987 16.6885223099999997
 33.9944381899999968 44.5226438600000023 42.0752724099999966
  9.1034453899999992  1.6066197799999999  2.4586072699999999
 21.8123342899999990 49.9024850300000011 11.0659259199999997
 35.0169209000000023 29.3895581399999983  0.3036730200000000
  3.8324902999999999 12.6644992100000007  2.2382152700000000
 17.6841149699999995 16.9202245399999995 28.2138185899999989
 39.6491090499999999 32.5757799100000014  1.1329865299999999
 42.1046453499999984  2.7743829000000000 29.0533356000000005
 49.4114933500000006  8.9687884400000009 38.4272460999999979
 46.7252105700000016 10.6140366299999993 40.1137062800000024
 41.0613942600000001 18.8533562299999993 18.3581968199999999
 46.2138805100000027 16.6896561500000011  3.0508647000000000
 25.8829936499999995 15.4742850999999995 26.3096657900000004
 36.5529946699999968 46.1813975299999981 20.7483549499999995
 17.6015876999999996 29.8844974900000011 18.7492472200000009
 18.5980382000000013 27.2280212900000009 21.3537393000000009
 42.2964225300000010 25.9733851899999983 34.6848667499999976
 48.5555142199999992 22.5274241199999992 18.4171321399999997
 36.7399138600000015 37.7321938500000016 14.9819719199999994
  2.0020749900000001 48.8743483800000007 31.1731926799999997
 27.8493330000000014 13.7397516799999995 24.0065120500000013
 27.4480330899999991 19.0921194499999984 31.2515535299999989
 44.8601863800000018 15.1524696999999993 17.5583072800000011
  2.4704330400000001 20.5680687800000008 37.5319430300000008
 49.3665282099999985  3.2397026400000000 49.6823444999999992
 11.1639459900000002 32.4402577199999982 23.4114361299999985
 26.0070998300000014  1.3269146400000000  1.4544298899999999
 44.6031261400000005 44.7411075400000016 13.7944966400000002
 44.1050050300000009 22.8195174700000010 27.6301241100000006
 29.4959887300000005 39.0825869000000026 11.0380266799999998
 16.1144855000000007 36.1578683999999981  5.2942036699999999
 29.6810408999999993 49.2543383000000006 17.6638624499999999
 26.5361640299999983 43.3087854099999987 40.7564687699999979
 43.9706718500000022 15.0818183399999999 30.1208233599999993
 40.6782132800000014 28.7305345199999991 24.0936677099999983
 42.2731747600000034 35.2481610099999969 15.8420496899999996
  7.3291849400000002 31.6112514500000010 40.3031195200000028
 24.5298330100000008 22.9033785999999999 37.0840945899999994
 22.3778067999999983  3.7988193099999998 46.7561734399999978
 31.0069380199999998 33.6073687199999966 39.0461169599999991
 48.0877431999999985 10.7000161200000008 35.1710044699999997
 19.0721438100000000 45.5210521799999981 22.3239831299999985
 49.1844065900000018 42.3216408999999985 49.8186301200000017
  1.7164374700000000 48.1645745399999967  2.0043770300000001
 37.5647874499999972  1.3826572300000000 38.3201363700000002
 46.5319284500000023 12.1213828499999998 24.0815646399999999
 38.8568373800000018 16.8658637499999990 14.5720802500000008
 12.9528427799999992 48.4285861500000010 39.2473881800000015
 30.8531098700000008 48.2175465899999978 42.3055343300000004
 29.1154743499999995 43.7774687499999970 17.9172994199999991
 36.0513296100000034 14.6968328899999996  9.6704294500000003
 30.9077399899999996 16.3860569100000006  0.4584626100000000
  5.3810257300000002 38.8993716299999974 31.7389541000000008
 36.6015380899999982 12.0506526300000001 35.3186850800000016
  1.1401955699999999 13.2670157700000004 28.7339637000000003
 31.7278335700000014 49.6988398499999988 38.4013374499999998
 11.2785471699999995  8.5422118900000008 18.9552901399999989
 31.5613846199999983  2.1913230000000001 29.5655999899999991
  9.0390924399999992 20.0266498700000000 37.9043649400000007
  8.6614795099999995 23.4860733000000010 30.4340001099999995
  4.2398564299999997  9.2670264200000005  0.9130936400000000
 46.3647285899999986  1.9934542500000001  3.9855569200000001
 35.2550770599999979 32.0800685700000017 19.7124660600000006
  7.4170242999999996  7.9274597800000004 36.8166022899999987
 26.6346420299999984 48.4285737599999990 39.0392067599999990
 31.9479452600000009 49.1159761999999986 42.2120251699999969
  7.5069591899999999 19.4631124200000016 16.5305081099999995
 28.2498609199999997 45.4124376400000003 46.8393974199999974
 29.7524787599999989 49.9105599000000026 46.7802560200000030
 35.7628856999999982 16.8198794400000011 41.7138113800000028
 34.0279216300000016  7.2788994100000002 36.4623750000000015
 23.1366775800000006  8.1400951900000003 10.5798149099999996
 14.9491335799999998  0.0880800900000000 30.3620499200000005
 44.9730633699999984 12.2761177400000001 24.7108929900000014
 15.9784923800000005  0.5215107700000000 15.0315089700000009
 34.5712368100000020 38.7770184000000029 25.3483003099999991
 28.8833495400000011 42.4556582399999982  2.2480943000000000
 33.7209301199999985 47.6725712200000018 32.9044523299999980
 25.1303716199999982 16.1558409500000018 31.2188962900000000
 45.9898664800000034  1.6859801299999999 36.2679796199999984
  5.9335228100000004 24.7178396800000009 32.7314863599999981
 18.0912517100000017  9.6674822500000008 31.3742576299999989
  7.1480094000000003 36.5940241300000011 35.7635756199999975
 28.4154281399999995 28.1007242999999995 38.8732857999999979
 43.3143571900000026 34.4013248700000034 33.0671412800000013
  9.4434785699999999 16.5443270099999999 10.5040210999999992
 41.0827060200000034 27.0400588999999982 12.2699192499999992
 20.5329178200000015 46.7498504799999992 24.7369743500000006
  4.3279561500000003 39.9589578100000011 40.2039272399999987
  7.4051768600000001  8.8074078100000008 26.1031062200000008
 14.9062915500000006 30.0421509799999988 18.4315188600000006
 28.5375487200000002 30.5813239999999986 30.3125180199999988
 12.4903829399999999 25.8660066999999998 29.9745956100000015
 33.0284335999999996  8.8835776099999997  6.2889356400000000
 48.1413489400000003 11.6516880300000008 29.9206859999999999
 26.9696644399999990 29.1502432599999999 28.1384166499999999
 22.3685712199999998 48.5764812000000035 24.9194829800000015
 21.7505133800000010 10.8783979700000000 33.2347120499999988
 25.8055016100000003 13.0654801700000007 41.5251758799999990
 13.6310848199999999 47.6426337600000025 29.7456073699999983
 34.4230898400000029 48.8708578299999985 22.5075113500000015
 33.7431906400000017 21.8051099300000004 28.4826270699999995
  7.5131152099999996 22.9273227199999994 39.5128713599999983
 42.8290131500000015 27.2239590400000004  3.0796244300000000
  9.2477768000000005 27.3846845999999999  4.3940193499999998
  0.2832254200000000 10.1695723900000008 20.0031234500000004
 42.4958413900000025 27.6062375799999984 28.0349425200000013
 33.2788844499999996 18.2109763700000009 21.8798468499999998
 34.5859356400000024 35.8202772599999975 31.3999334300000008
 38.6810968599999967 13.1948878799999996 16.4806281299999995
 39.9169694599999971 34.5056895800000021 37.1247592599999976
  5.8288072000000000 14.7626611499999996 16.0459024399999990
 33.4823774999999983 38.3186899999999966 22.2228342099999985
 49.1745207700000009 26.1705607499999999 48.6145765500000024
 15.1880996800000005 16.3913858899999987 40.0226497700000010
 10.6747573100000004 10.6460393700000004 27.9836728599999986
 21.5897592100000004  9.0830726599999991  9.2021820400000003
 11.0735649299999999 13.4057693699999998 10.7658209300000003
 41.1524197700000016 48.7191483100000013 22.7257127499999996
  1.0542123800000001 18.1474979400000009  4.9977984099999997
 47.9978261700000033 49.4645047500000032 49.9312739399999970
 44.9210311000000004 37.7697475699999998 46.1473472200000003
 48.4646687700000030 45.6880890300000004 29.7122911700000003
 24.4776747999999991 46.2803668600000009 34.1257455000000007
  1.4045955400000001  7.0372188700000002 24.5375975100000012
  3.4014335800000000 17.8942619699999987 48.8608851099999981
  4.8960306899999999 37.5878695600000015 39.3236505500000035
 12.5948215000000001 31.1648868400000012 38.2531237500000003
 20.2508678800000013  6.3363820100000003 45.5724607000000006
 36.3469316799999973 32.8807345999999967 26.5063842600000008
 42.8003404000000032 45.3211416700000029 12.4280500699999994
 28.2376092800000009 39.4990971499999972 11.3257930899999995
  2.6044630000000000 23.2096275699999985 34.2104943599999984
 25.7787563700000000 13.5583530700000008 25.2400625400000003
  9.7310791999999999  0.2481170500000000 20.1032012999999985
 24.5042952800000009 43.6908096299999968 11.4374152900000006
 28.6387851100000006 32.0613932899999980  5.8371008599999996
  4.1542108400000002 19.8216263099999992 42.0733321399999980
 26.4933125899999986 23.1047636499999989 21.7626172199999992
 14.3076488600000005 18.6543597500000011 23.8242526599999991
 14.2145399999999995  3.7737829199999999 25.9694736100000014
 18.9429736599999998 24.5582222100000003  0.0407197300000000
 34.3764685700000001 15.3072897599999997 19.6190785699999992
 37.8535394299999979  4.4371452700000003 25.1005005399999988
 14.1126449300000001 41.2233143099999992 40.2435622599999974
 23.5509008699999995 19.9909968900000017 38.6846636799999999
 23.1425285000000009  6.4764683400000003  0.0033867500000000
  6.9211836199999999 24.3331652500000004 17.5083244799999989
 12.4094792500000004 16.1176987099999991 40.1621641999999994
  5.4937279600000002 33.0857832800000011 22.7596496799999990
 21.4321776399999990 10.6095837500000005 15.2740502300000003
 10.9622752299999995 42.9598662300000029 26.4716788299999983
  9.5061266399999997 19.4703937799999984 38.9083136799999991
 32.0279403500000015 43.5934724999999972 25.4922316299999991
 47.9369978900000007 27.1234977199999996 14.6261554500000006
 21.7946688500000008  2.9993842100000001 10.6504797300000007
  2.6127995700000000 13.3223771899999992  9.1933956200000004
 13.4001512799999993 16.3426324100000002 20.6229195099999991
  9.4081957900000006 23.5465893199999989 47.5266439099999971
 30.3042461100000011 23.4643246900000015 14.9049891199999998
  8.1521874800000003 13.8149718400000001 38.2316353200000023
  9.0948407099999997  6.9878380499999997 44.5941825800000018
 44.4266855899999982 29.3047507699999983 24.9461288900000007
 19.5882759100000001 20.1533003800000010 16.5194934800000013
 43.1268790499999994 33.4561462200000008 47.4495266599999965
 34.1944944700000022  6.8686217999999997 40.9266479500000031
  4.1721022899999998 20.5232554399999998 34.3542536200000015
 41.9405612799999972 45.0134736500000017 41.4515726200000003
 26.5810722099999985 48.0807062499999986 42.4298804700000005
 19.0010319800000005  0.3444630200000000 39.3899579899999992
 27.0240197799999997 42.7004130799999970 15.8425616399999996
 15.9334953000000006 44.2555360500000035  2.7943407400000000
 14.4848696500000003 47.2041895400000016 10.8135436899999995
 43.2288730000000001 47.6685443399999969 15.2247502099999998
 32.3767353699999987  5.7913610699999998 35.4055684699999986
 11.3892591400000001 19.2783300199999985 10.8925724200000005
 21.4646964900000015  7.1539067000000003 35.7099036600000019
 26.3508465299999983 28.6775688100000004 33.8989490299999972
 39.6364066000000008 19.0857313399999988 23.8866808000000006
 13.4442125699999995  6.8807354700000003 44.5210352300000025
 15.0390798100000005 11.8143048200000003 13.0210970400000008
 45.5778777100000028 27.3906939600000001  5.3933146399999998
 45.4392129800000006 46.8524992899999972 49.9555955599999990
  3.6946454300000000 45.9058015800000021 38.8071904600000011
 32.4500701099999986 38.3282978499999984 33.7019632299999969
 28.8959422699999990  4.1018142199999996 39.1915134999999992
 41.7674537500000014 35.5951374799999982 47.4756184000000019
 22.7184862699999996 29.5987444400000008 16.0977511699999987
  4.9039842399999998 21.2630391500000009 17.8989146499999983
 27.0584448799999997 21.2831525500000005  5.9448473399999999
 15.0492702900000008 33.0857870600000012 22.8230432699999994
 36.8882615999999999 31.0126935300000000 30.3401188099999999
 26.3768982700000016 16.5292754799999990  7.5330701700000002
  8.3103332699999992 21.7712810599999997  9.9207707999999997
 38.3947680200000008  0.8660862499999999  6.3115351400000002
 27.9710931599999988 10.1627415800000005  5.1977214700000003
  8.1046798800000008 15.3546925200000004 16.3172508399999998
 44.0349234700000025 44.9587702999999976 22.0523657399999991
 34.1109584200000029  2.8782397099999999 24.5747326299999997
 27.5312942300000003 18.4622044500000015 44.2702385300000003
 49.8990366000000023  3.1081396899999998 38.5037160899999975
 31.9563089299999987 39.6842205199999967 22.6941963499999986
 21.3581058500000012 15.6850697100000005 18.9665824699999988
 21.3516218000000002  6.7075735900000000 34.1893617699999979
 20.6032492800000000 28.8106187100000000 20.0687397599999997
 45.3091424200000006 10.7566017200000008 36.2051785399999986
  0.4357110900000000 22.9963632599999990 49.8773787399999975
 39.1044880700000022 29.1309562399999997  3.9815501599999998
 17.9134740800000003 21.7588800999999989  1.4979050000000000
 25.2893955800000008 38.8715086500000027 13.4458015500000005
 33.5866552900000030 40.9155161500000020 17.0800059200000014
 13.6594672100000007 24.6653185800000010  0.0093850500000000
  7.7346026500000002 45.4666844099999992  8.5648492500000000
 49.4213181800000001 24.0946142099999996  8.1810529100000000
 48.9563408100000004  9.2199433200000005  9.5873325400000002
 34.2980154299999995 46.7452499999999986 47.4167505699999978
 33.3268851400000017 24.9585980899999988 29.1580961199999997
 10.1215252000000007 12.4740387599999991  1.1694460200000001
  4.8792268400000003  5.1655084599999999 16.7007162499999993
 38.9380915300000012 32.5042972500000005 49.7238682099999991
  9.0530324100000001  4.3156660599999999 33.3995505399999999
 46.2459116899999998  5.0378138899999998 20.5380852000000012
 33.5978961900000002 29.8413308499999985 43.2475560999999971
 11.6753925400000007 28.3224044699999986 14.6519817200000002
  5.8568475299999996 36.0364864299999965 15.2273995600000003
 26.9044719500000014 33.4601122099999984 14.1059310000000000
 28.3823310100000015 21.8372246799999985 18.2352267800000014
 29.4564179999999993 24.0172931600000013  8.6460907799999998
 14.8476570700000003 44.5723434900000015 27.3770110600000010
 25.4248456000000012 15.3799718100000007 41.1861848699999982
 16.2091833100000002 27.7439737400000013 42.9665742399999999
 39.2132672400000004  7.3825548000000003 28.5984760099999988
  4.5862171399999996 30.5513957400000002 27.3082438500000002
 19.6544169800000006 31.7861369300000014 29.6033161599999985
 42.9346966499999994  3.4466374000000002 27.6347533200000015
  7.2990994899999997 25.9651863399999989 46.8867658400000025
 25.8734563000000009  5.1800683899999997 11.4093691600000007
  7.2675215299999998 45.2344337899999971  5.1287450899999998
 48.8186461800000018 44.9864237299999985 36.8236521199999984
 45.1211767899999998  1.6183884100000001  0.2540462400000000
 19.7551871299999995 25.4300539999999984  2.9175206600000001
 34.7696767799999975 23.9576686499999987  6.5370309200000003
 17.8786674800000007 36.7643876200000008 49.0626830100000006