Na Cl 
 1.0000000000000000
    50.0000000000000000    0.0000000000000000    0.0000000000000000
     0.0000000000000000   50.0000000000000000    0.0000000000000000
     0.0000000000000000    0.0000000000000000   50.0000000000000000
 Na  Cl 
 28900 28900
Cartesian
 23.6153051800000000  2.4342153199999998 11.8569382099999991
 29.5604213999999992 22.0024312299999991 44.8615991300000019
 38.8965000800000027 33.4768654200000029 45.6771744400000017
 46.2708047300000018 23.4151659400000014 38.6939696900000030
 29.5486049599999987 23.4036154500000002 44.5647933999999992
  0.4826078000000000 11.1892287400000008  7.3674982000000000
 25.5422176400000005 38.0519536299999999 39.1846059800000006
 25.6726574300000010 30.3533793799999998 49.2472417199999981
 48.3915602100000015 16.9524198000000013 19.3195975500000010
  4.4759817899999996 27.8259578800000007 20.8740155099999996
 29.5786378300000017 28.1660834700000002 37.3648657199999974
 41.2981086799999986 47.3126448000000011 33.6211197900000016
 20.1603664599999988 35.2791685299999997 36.9854998899999998
 15.2967303099999992 42.1463726500000035  4.0851579500000001
  9.2497201400000009 10.0464714300000004  1.0452772299999999
 17.9743419499999995 44.7651285199999975 17.5150156599999995
 24.8681444099999993  8.9030854900000005 34.1578490699999975
 40.9693623900000006 22.0736062299999993 41.0998352800000006
 14.9314868300000008  3.4992079999999999 11.1887976800000004
  0.1226281700000000 11.0117335199999999 24.2051976800000013
 16.7574844399999989 43.0409849799999975 39.8345954699999965
  0.0460119700000000 23.3231552099999995 42.2695368500000015
 24.1058251199999987 46.6028494299999991  4.0903345699999996
 46.2531192900000008 26.1759225600000001 38.7305227499999987
 43.8958953599999973  8.3132683800000002 21.1016691399999985
  5.7532159900000002 44.3010955299999978 18.5126129400000003
 41.4856677800000000 49.6184377499999982 37.0832031099999995
  7.3946141699999997 31.2803086300000004 28.1470971500000005
 18.2618771799999990 27.3697049999999997  2.6318511500000001
 33.5222313800000009  8.1428075700000004  6.1668505700000003
 46.2575098900000015 49.9688017200000019 25.6504776300000010
  7.5775417799999998  5.7446415999999996  0.1914191300000000
 17.1813069700000014 16.2262278699999989 14.2117851000000002
  7.4721997399999998 35.2610398200000006 32.2963356200000007
  4.5127498900000003 45.7874655899999965 49.9342329600000028
 44.6533032399999996 38.0676139099999986  2.3869694500000000
 17.7954697400000015 38.4598627900000025 44.9138536999999971
 17.1391789400000008  8.1804707499999996 39.1718139600000015
 10.6772067300000000  1.8135243100000000 29.9030847299999998
 31.1450373099999993  4.6420031899999996 18.1476937900000017
  8.2895693200000000 22.7915191899999989  7.0630199800000000
  8.1767609399999994 26.8210866599999989 32.0035171600000012
 33.1129270300000016 28.9645835900000002  7.7563839100000003
 11.5443238800000003 25.4514670400000007 12.8064586400000007
 38.1503203600000020 42.4342833899999974 43.0009185999999985
 16.4389142799999988 38.8323764699999998  5.7513823799999999
 13.4835926199999996 18.7411309999999993 32.1887265100000022
 45.9264693800000003 36.1708070800000030 22.7545693600000014
 36.0472716599999998 46.4947206200000025 36.7694346400000001
 33.8880035999999976  5.6764232000000003  3.6447579999999999
  7.4476882199999999 23.2958321099999992 33.0502768200000006
 26.0025155199999993 24.2782658799999993 44.8146074499999969
 49.1074465900000021 48.8548541700000030  3.5339831899999998
 45.6554015600000014 30.3340399100000013 24.2087347299999998
 26.2046287400000004 21.1952734400000011 28.9606583899999990
 41.7855695100000020 40.0667286899999979  1.5090884400000000
 13.2494363100000001 33.2760019600000021 19.7649680200000013
 39.8174618299999992 12.0810161600000008 45.6386579200000000
 48.9236283600000021  9.4218073499999999  2.3160585899999999
 25.9967415499999994 27.2352002499999983 42.0105262599999989
 20.9148892800000006 16.5440693600000017  6.1736909899999999
 11.2245264000000002  0.6152883900000000 41.1519260099999968
 40.4204576699999976 46.6320551499999993 44.9508228799999969
 38.4801129100000026 35.2576084100000031 24.6246031800000011
 15.7057017200000004 15.7287426099999994  2.9771022500000002
 36.1575367100000022 49.7194808400000028 35.3145465200000004
 31.5833387799999983 21.1748933800000003 36.4329553399999995
 28.6803639200000013 30.8763391899999995 38.6328465499999965
  2.2519409200000000 48.3710447099999996 22.1484172500000014
 48.4487105199999988 27.4776318699999997 16.5588460499999997
  4.5255187899999996 10.3943370599999998 47.6229067200000031
 48.1932132499999994 33.3350868100000000 12.8040485400000001
 47.6437723000000020 48.8810802100000004 44.3150998799999982
  3.8836246800000001 22.0800641800000008 49.6386633999999987
 27.0156821100000002  2.5692714900000002 31.7458582500000013
  2.6395932300000000 13.6434466899999993  5.4084758500000003
  0.2536651900000000 13.3508691600000002 38.0580164400000029
 41.0823684599999979 21.3667238200000007 10.5272942700000005
 32.2348586399999988 21.2692191699999995 21.7665742699999996
 30.8137869100000010 37.3166639299999972 31.1706694000000013
 35.4405859000000021 49.9271403099999986 25.4471338200000012
 39.9781794900000023 13.2627541299999994  7.1085975100000001
 24.1983049399999999  0.9111753400000000 14.1240004300000006
 32.0751984799999974 37.8607744800000035 26.0366184099999991
 47.4455491399999971 17.3443874899999990  7.1205287300000002
 24.7263207399999985 25.2727583600000010  9.2498137899999993
 11.6203542899999999  3.2944728200000002 20.2046353699999983
 29.3066583200000004  7.0064592399999999  7.5605149899999997
 19.5754062200000014  3.8524112900000000 47.4765761299999980
 38.8149799299999998 13.3676184899999999 19.5639097000000000
 10.6303111900000005 13.6402247499999998  1.2574356300000000
 33.7206132199999971 42.3463356199999978 14.8627315000000007
 47.9283517900000007 31.8085604500000017  6.4754754300000004
 33.3156109000000029 35.4724153599999994 34.8849148899999975
 10.7645306999999999 19.4675071499999994 40.3926506399999994
 29.2792408600000016 46.2011854799999995  3.3244381700000001
 23.8322798499999990 49.1274498900000012 35.0502418499999990
 39.4148021399999990 44.5796030500000029 49.3885425400000031
 23.2344399300000006  1.2319279400000001  5.0128450600000001
  0.8869915500000000  7.6669913999999997  9.1244348399999993
  4.3763009600000000  2.4902664099999998  3.9076143200000000
 25.2738685499999995 27.9086607399999984 10.8610664099999994
 41.9431179999999983 37.9841540700000024 49.6773726799999977
 27.6025840400000000 16.6300319399999985  0.9468919800000000
 14.4135663600000008 48.8097886500000016 46.1179235000000034
  3.9402656999999999 24.0455761899999985 33.9990197099999989
 21.5243344100000016  9.4883659900000001 20.9671917699999995
 45.5920816100000010 16.1156962499999992  6.5068197899999998
 10.1202653100000006 41.2990140900000000 12.5298458700000008
 39.1194959600000018 31.3685763800000004 11.6631738899999995
 22.9635622499999990 48.5906673400000031 13.3459092899999998
  4.6974008700000001 49.2164085599999979 30.1786939799999985
 13.3096446299999993 45.1973722800000033 32.2358420999999993
 37.7981197300000034 22.9982432299999999 31.4739967100000015
 33.4627796600000025  8.9377220299999998 16.2941515099999990
  5.8043544899999997  3.7859238700000000 30.0224861300000008
 37.9243363599999981 44.3211522200000019  5.6052938599999997
  8.1738973500000007 28.6928288999999985 40.3753307599999971
 38.1840886700000013  9.9783203399999998  5.6299177699999996
 22.0279992900000003 24.5840560500000009 34.2300769100000011
  4.9026281100000002 48.4706952700000002 46.9753947100000033
 15.4588824000000002 17.4364584799999989  4.5576937500000003
  1.1588863100000000 27.4022164199999985 49.0513435100000024
  5.9303639300000004 21.6264898499999987 26.4149489700000011
  6.0473433700000001 37.7000597500000012 24.9041865700000002
 14.6636748499999996  2.3832407299999998  5.1269918499999996
 19.3519745999999984 48.6371753000000027 45.0053217099999969
  4.4419784099999999  6.3311697200000001  7.9695616700000000
 44.4229087800000002 15.8278089299999998 17.9847255200000014
 19.2818147700000004 19.4608154599999992 27.9253764699999998
 41.8022871200000026 21.0396462000000000 13.3336586199999996
 48.8004957599999969 39.9321593299999975 39.8018548200000026
 49.7739893400000000  1.4388091900000000 32.0660040599999974
 33.3302874000000031 32.1403998099999981 33.6996065399999978
 39.2870787700000008 47.9329110600000021  8.4361505500000007
 36.3822957699999989 27.2449563599999998  5.9815712500000000
 32.2680555700000014 29.2099097199999989 30.9526323699999999
 20.8922725000000007 36.4239668399999985 27.6106973300000007
  2.9900375100000001  3.5603785900000000 39.2829687500000020
 28.8558106999999993 29.6104413400000013 12.6875379600000002
 39.4505736099999993 45.7907239700000019  4.6976865800000001
  4.0182774200000004 35.1886092199999965 14.9550774000000004
 49.9858139099999974 11.5743563300000005 30.2068913300000013
 37.2225216300000028 48.9210312700000003 15.7725807099999997
 39.7640265200000016 13.9937954100000006 43.7194367800000023
 42.5740311100000000 41.7409002500000028 39.3105179300000032
 41.8747729999999976 39.3098944500000016 31.3960472000000017
 23.3653495699999993  1.4301602700000000 36.7037172599999977
 29.3759891199999998 22.2491425800000009 41.3393395399999974
 40.2797275900000002 31.3815649000000008 29.9613524099999999
 10.4500137300000002 33.3807906299999999 30.9481038899999987
 44.7820054099999965  1.1649427699999999 29.1931489599999985
 49.2546017499999991 22.0916308599999986 44.0398060200000003
 27.0198172499999991 22.0686044599999995  7.0352377900000000
 41.2414834599999978 45.6124467100000004  8.3917815299999994
 40.6721365800000001 26.5995462300000014  8.5735146499999999
 45.0606584499999983 34.4866127599999999 16.5007158499999989
 27.5312778899999984 18.1874988900000005 27.2938747100000008
 28.1522275499999992  4.4885091700000004 38.3736829200000003
 46.4888688200000004 38.4181913899999969 44.5426342800000015
 28.0542609899999995  7.9644221799999997  8.0436625799999995
 39.8369622100000029 39.8239250499999997 20.7082822499999999
 44.0998592199999990 36.3338326499999980 12.7253586500000004
 25.1028064099999995  2.8672602299999999 40.0426416399999994
 46.6780076300000033 17.2741594099999993 26.7972144700000001
 30.7835231200000017 28.6730993900000009  8.7814568800000004
 39.9458084899999974 19.2033034100000002 49.9204795300000015
 13.4995305699999992 36.6103584600000005 10.2946085899999993
 21.4865776799999999 24.9110850200000016 30.6058569700000014
 42.6381300400000001 19.0515857299999993  0.0013281600000000
 22.3223704000000005 22.0793419399999991 37.4999646699999971
 11.9062720599999992  8.7145469900000005 15.3912449799999997
 30.6543669600000008  7.9454518199999997 39.2087271899999976
 31.0778024299999984 24.6254165799999996 29.3764122199999989
 29.3601816900000010  6.5736464300000002 33.2754739900000018
 10.8914305500000008  2.2732651100000001  6.7667114300000000
 28.1190831099999983 47.4298504400000027  3.4963485599999999
 13.1301946100000002 29.1807562500000017 40.9702626899999984
 37.2051085499999985  6.2594312700000003  2.2614187100000001
  7.6642687900000004 13.3656103700000006 35.8134749000000028
 17.0727225999999987 41.2487908900000022 18.4285289500000005
 28.2859969800000002  2.7512143600000001 39.6597681499999979
 11.7233288499999997 33.9880306399999981 36.8310202099999984
 18.9566436299999985  4.3095095099999998 29.9263399200000002
 21.9950920799999992 21.5125411399999997 11.2789120799999996
 14.6753461600000001 48.5429685300000031 11.6721227600000006
 23.3672048100000005 32.6111980399999979 46.4054584499999976
 36.5401463500000006 30.2397387900000005 39.2899133700000007
 45.5739773299999982 11.8370250400000003 44.8798274800000030
 45.2605073800000000 43.3475084800000019 41.5750312300000004
  1.5499613500000000  0.2003890500000000 17.9387014200000010
 45.7547826400000019  0.6318974800000000 20.3009081599999988
 47.3635010899999997 38.3627770399999974 13.1937354899999999
 47.1123207999999991 16.7757621599999993  0.2345874200000000
 42.7107816999999983 40.1080214400000017 45.5162957100000014
 42.3819256399999986 13.0243076299999991 49.5383458399999981
 40.9786046400000004 27.4082527399999982  0.5037855800000000
 17.1242849700000015  7.8575718500000002 12.2100594499999993
 14.4691935800000007 33.7365121500000029  9.5597133299999992
 20.1019671799999990  3.7624601499999999 35.6677832000000024
 18.4322678999999994 41.1266549899999987 15.6904416900000001
  9.2535348400000004 24.1600883999999994  8.6057460399999997
 36.7737636600000002  6.6458454199999997 46.7238961500000016
 38.5225441300000000 48.3991145600000010 43.9184343399999975
 37.1259759100000011 26.2771534899999999 40.1186322000000004
 23.8514675199999999 21.6145604899999988 25.9182386499999993
  7.8369129300000004 14.9955351700000001 29.9595584499999994
 30.2989261600000006 34.0519690799999992 11.4443475200000009
 45.1487703199999970 15.3828123899999998 38.9278199900000033
  9.8706354399999992 45.7698956600000031  4.6363204700000002
 22.6382052199999997 30.3150747799999998  5.4618459899999996
 47.2455855700000029  6.5566396600000001 47.4427724900000030
 20.6773128700000015 23.5973886600000000  1.3111362000000000
 36.2661252199999993 24.7665725099999996  1.7841171499999999
 35.6569090799999984 35.6708929600000033 20.6979357700000008
 20.2065432800000018 11.3728584500000007 43.6320394199999981
 23.6866124800000009  0.8959229800000000  7.7775364299999996
 17.0547995800000010 40.0165339200000005  7.8855713600000001
 32.7979034700000014 34.3635599500000026 48.3521162099999984
  4.0170724499999997 14.9367047999999993 41.1975887299999997
  7.8738359300000003 35.5604846199999969 15.0650017300000005
 47.4840197500000016 13.9198838600000006  1.4879764099999999
  8.4194634100000005  5.9216141300000000 24.5686201500000010
 24.7988494700000004 44.2630325900000017 28.7887115400000013
  1.8748500400000001 10.6046107200000002 31.6923397300000005
  3.1538002900000000  5.9214843699999999 22.3878023599999985
 21.7941833799999998 44.8400029399999980 25.9294510699999989
 46.2841451399999997 47.6273404000000014 22.7100315600000009
 37.5004449300000005 19.9779979999999995 20.2123484399999995
  8.9402908300000004  9.4679262099999999 27.4357568600000015
 12.7655466600000000  0.5427352400000000 21.7511587199999994
 21.7245718100000005 24.8784102599999990 31.4412655900000004
 33.3508062800000005 27.0011435400000011  8.2194576099999992
 44.4240146100000004 34.4134793300000013 37.3471185000000006
 43.0206974199999976 48.8616006700000014 16.9224210200000016
 15.1300197500000007 40.2420015499999977 47.3200416600000011
  7.9402562500000000  1.8867948100000000 11.3603738700000001
 33.8035577099999998 36.3944895300000013 32.1854791499999990
 41.3481093899999976 37.6745224900000011 45.6994439699999973
 20.5547836900000007 14.2495412399999992 42.0396977500000020
 11.2001394399999992 40.7436344500000018 28.2641955100000004
 36.3339104599999985 14.0331449500000005  5.0672051299999996
 14.5165990199999992 30.4796860500000015 22.0833791999999995
  5.3541948300000000 37.9525839100000013 19.0777118200000011
 39.1025146899999996 45.9643685899999994 23.1429570499999997
 13.6790759699999995  4.2298149100000000 40.4991997099999992
 20.0495744000000009 23.1969148999999994 20.5486569900000013
 11.2780009000000003 49.3610981200000012 11.9760193899999994
 30.9579176300000007  9.7215635999999996 40.3193917799999966
 48.0176109599999990 31.9873686600000013 11.7050067099999993
 26.0477925799999994 35.2498451200000034 44.1468967599999971
 26.8937835099999987  3.8195020099999999 44.3702338699999999
 30.5206578600000000 10.6966527700000000 28.6430958999999987
  4.5128327600000002 47.1801680000000019  7.0836330299999997
  4.6203878500000002  4.8585896899999996  8.3168669400000006
 31.5826768199999997 10.0493181499999995 48.8902204199999986
 47.9345975700000011 36.7813034200000004 33.3665032800000034
 40.8206162199999980 22.0968650099999984 32.0101530900000029
 44.6429934800000012 14.7914071899999993 49.1805903400000020
 28.1818055899999997  1.6065710200000001  1.6391864100000000
 49.8059156999999999 38.0252512100000004 40.3971135299999986
  4.2871638499999998  4.3627495900000000 24.7323553700000005
 26.6966341900000010 40.3308081200000004 39.8920102700000001
 15.0166017800000002 34.0260690200000013 26.1420806299999988
 19.9491368199999997 35.1425907499999965 41.5227443400000027
 22.7641324599999990 46.7742865900000027 35.4347015700000014
  1.0292251600000000 48.1872626999999980 33.3242619600000012
 30.8707034600000014 43.9130386300000026 46.4402700300000006
 21.6183809899999986 40.1292939200000021  3.0428441300000002
 41.0812182100000030  2.0344177999999999 42.4599124300000028
 23.7482385799999989 36.6458484600000034  6.7750805999999999
 18.7796785799999988 30.0579217199999995 33.4902971200000010
 21.4237085900000004 18.2702320699999987 17.7904222499999989
  3.6267158400000001  4.2130546700000000  8.8097781000000008
 15.9404997099999992 11.9786084899999992 24.4729220299999994
 16.4005290099999996 43.6910622700000033 15.6836119299999996
 44.4657421900000003 35.7289502100000007 46.4661759299999986
  7.0188688099999998 16.1281686099999995 16.1298593100000005
 44.5454494999999966 25.3697502999999998 39.3933099200000001
 33.3597909799999996 28.0070252099999983 14.0727859300000002
 21.3131066699999998  9.3838763200000006 14.8093675999999999
  1.0413047600000001  1.2091510700000001 22.2020367999999984
 49.6324342699999974 22.3227318500000003 28.1541697599999985
 37.1311213999999978 12.7573598500000003 12.9469459699999998
 49.3209243100000023 36.7747948199999968 23.9765574999999984
 24.0019603699999990  0.9480128100000000 33.2512458499999966
  3.6889598499999998  0.3481808400000000  1.8752988399999999
 18.1476654099999983  7.8125521100000004  5.5633318599999999
  2.9186321899999998  3.4512201999999998  4.6579663900000003
 36.4411104599999973 15.7435687600000005  2.1600904700000001
  4.6404481700000000 42.0123162900000011  0.9998440300000000
  4.3785810999999999 40.8124748099999977 35.2641467400000010
 34.5142626399999983 31.2121305100000015 32.2774169699999973
 36.5469328100000013 44.2996791099999996 44.7067542400000022
 36.4185833100000025 37.1296510000000026 38.0444249499999998
 12.6502157000000004 12.1752951599999992 30.1857267399999998
 31.5093429699999987 27.5272514800000003  0.5156231300000000
 16.0780266000000012 23.3930698700000015 17.3253132799999996
 36.5403129899999968 33.0404050300000023 10.0874003999999999
 38.9385248299999986 39.7867338499999974 45.6357354299999969
 49.8053348899999975 28.2634208300000012 23.3139625600000002
 37.7687899800000011 30.0532014700000012  4.1571311700000004
 18.9035271599999994 11.5810037900000005 41.9306604200000024
 28.6096017700000012 41.5769620299999971 34.0008275300000022
  1.9082564600000000 22.0663848000000016 19.7292834399999997
 40.0667414300000004  1.7231396400000001 10.8079420200000005
 49.0815640000000002 13.8460761199999993 11.0014050599999997
  0.6147622400000000 32.3089113799999978 15.8736347099999993
 38.1785069800000016 16.1667625699999995 14.7785609000000004
 33.2729763000000034 18.9127424399999988 16.4621122000000000
 28.7197878300000013 43.4739787099999972 17.1601809199999984
 11.1606812600000005 27.5699741600000010 18.5556538000000018
 14.8734565700000001 28.1845059400000011 46.9912950399999971
 32.6957392200000001 17.2890585899999998 27.2077686999999990
 30.9685048300000005 37.6607211199999981 13.7399465799999998
 27.2822388999999994 32.5892604100000014 27.6997241800000005
 49.2642700899999966 34.5874052400000025 10.5199073300000006
  8.0824238499999996 41.2976782699999987 40.0787316899999979
  3.2435390599999998 14.1610616000000000  4.9622316900000003
  0.2279598300000000 31.3208072599999987  8.8076056000000005
 29.4273565700000006 35.5818053599999971 23.4027533199999986
 30.0750533500000010 21.4216395400000010 33.4957168600000017
 12.5132551200000002 10.2788727499999997  7.0143858000000003
 40.7821464800000015 25.5358474199999996 30.9876134800000003
  8.8196968699999996 32.6452954800000015 19.4811731899999998
 20.0778051099999999 47.6705512500000026 48.9548364400000011
 33.9360747899999993 13.6089572299999997 25.7441321499999987
 31.6290581000000017 39.5795668199999966 13.7795336099999997
 42.6214555700000020 38.8037813299999996 25.1528294400000014
 43.6044123200000016  9.3579072799999992 28.3476241100000017
 38.5183578500000010 28.0404462400000014 25.7799166799999995
 33.0597086699999991 34.5236682700000017 39.2926586700000016
 41.7143372999999968 42.8670230800000027 16.0568282999999994
 17.1132620700000011 22.5956719200000009 15.4580284900000002
  3.0848538500000000 47.1386862199999968  9.8993111700000007
 27.7228017899999983 37.1297389400000029 39.5224347899999984
  3.5615065399999999  8.2403916899999992 46.2631404799999970
 44.6021282600000006 27.9695895400000012 34.8913952400000014
 19.6798071800000010  8.5193121099999995 34.0787117100000003
 10.9076469500000002 24.8222700699999983 37.8930137199999990
 17.8815979399999989 36.0165119999999987 29.5172467699999999
 46.3665178700000027 32.0658868100000021 31.3596076199999985
 10.9253453599999997 22.2794778300000011  1.1838604500000001
 47.1425306699999993 24.5130331400000010 40.5479329599999971
 39.1092489199999989  9.1465815900000003 26.5968576699999986
 13.3867977699999994 41.9101456599999977 33.8181214100000034
 31.1665360299999996 15.9709931199999993 24.4813557099999990
  8.1454679399999996  0.8796807800000001 34.7949506200000016
 48.7350341599999979 39.7191694899999987 10.0816012399999995
 41.4720526199999995 20.7883141100000017 39.1952473600000033
  4.5224130200000001  8.1955846399999999 43.1911070600000002
 12.9363012600000005 20.4152101700000017 18.4374043299999997
 27.4546384699999990 30.1087760700000011 38.1994749400000018
 18.5752568199999999 44.3412972400000029 44.1826370300000022
 27.5805376799999991 46.0968404500000020 49.5974842899999970
 34.9185002700000027 25.2339784899999984  7.4764342800000003
  6.4309113199999999 34.3265943199999981 27.0706626499999992
 26.6271246700000006 22.0843642600000010 21.9100963700000015
 42.9896219600000009 26.5762831900000016 17.5915855500000013
 11.7783902999999999  9.4057154900000004 31.8602160900000015
 24.6518781500000017 24.1161064799999991 19.4016476299999994
 33.4916369399999994 43.9421295400000034 35.3711669999999998
 33.2037079099999985  4.7187925799999997  8.7468988299999992
  9.1286406000000007 25.0625028400000005 25.4852178599999988
 30.0566154200000000 11.5353747599999998 25.0435199699999984
  6.4401444500000000 39.5078439899999978  8.3339653499999997
 18.9556077899999984 36.9001424100000008 30.6935048600000009
 15.7361353400000006 27.2265840200000007 47.1976505800000012
  0.9133186400000000  0.1464302200000000 11.0526850299999992
 12.4772415599999995  4.9988224700000004 15.2091861300000009
 20.7912997900000001 39.3755791399999993 35.3586505600000010
 22.8399025400000006 20.2419606399999985  6.6324168600000002
 21.0301899900000002  4.4031867499999997  4.3597830699999998
 24.8740786800000002  8.6403787399999992 18.8454985499999985
 36.2940853400000023 44.6923056799999969 43.5816066100000015
 26.0622554300000004 28.3270913499999999 43.4243883199999985
 33.6945084999999978  3.6043794400000002 28.8052090800000009
 29.1490254399999991  7.6705044400000002 18.1681297999999991
  1.7576106400000000 40.1619701799999973  2.2328712099999999
 27.8663534300000002 49.8021571199999968 24.8547117299999982
 33.1401159699999965 35.9290666300000012  9.8229294700000001
 43.9755830399999965 47.6241870100000000 19.7110328899999985
 33.3298076299999977 24.0768915600000000 10.3164826299999994
 39.1236212299999977  0.7019903300000000 48.3514447900000022
 42.7326219400000014  7.1768705800000001 21.6637818200000005
  3.1811221100000000 15.1192218799999996  8.7621945700000001
 16.2041308899999983 42.8278672699999987  7.9652208900000003
 21.4674511300000006  3.4511853700000001  4.0725539700000004
 47.4145573600000034 46.4654685699999987 45.1302225900000025
  3.6510897400000002 13.8651789500000007 32.0625511799999998
 25.2977593499999998 29.4413182300000003 20.2355303699999993
 48.5588663899999986 28.8674998199999990 26.0695277599999997
  0.5530653500000000 45.3693777800000007 23.1322927699999994
 34.4446543299999988 11.3053224100000005  8.5537484900000003
 12.8508493099999992 34.2244057099999992  9.5868421799999997
 26.0564572800000001 30.8774458400000000  7.2322130900000001
  1.8054631500000000 44.4192412100000027  4.1869333299999996
 19.7884205400000006 33.9839405800000023 18.0892797700000010
 26.5251563499999996  8.3028077699999994 45.2901100999999997
 40.8803679000000031 26.3433063099999991  1.9490845699999999
  8.2644408100000000  0.4567635200000000 26.8245608900000008
 40.3948842499999969 16.8195949700000007 36.9326823999999974
 27.5931449700000009  7.9875704599999997 47.0967829699999996
  5.6313424899999998 45.9731673599999979 21.0237694799999986
 46.4935987200000014 17.9137544999999996 26.4719196699999983
 13.5539248200000007  0.8144214300000000 37.9809529500000025
 45.8761711599999984 40.8086620699999969 21.1834005199999993
 29.4125040200000001 35.9550620099999989 46.7272541500000003
 44.9604494499999987  0.2738619700000000  2.7981132700000000
 27.8898088900000012 44.0179419899999971  9.5510406499999991
 24.3401442299999999 34.8040771599999985  2.1248279100000000
 11.9827662200000002 44.3518339199999971 21.2726334900000005
 29.1510789599999995 42.1840102399999992 36.6600623499999969
 45.6679585099999983 41.3787394000000006  2.4731351300000002
 15.9821416799999998 11.8552013800000005  0.3696293300000000
 12.3602148399999994 38.1308760900000010 15.6344519999999996
 18.2347655099999990 21.7040079299999995 29.2612479400000005
 43.7941904799999975 48.9594803000000027 11.9853248600000004
 37.3549937700000001 25.3802543400000005 15.9346779000000005
 14.1313834200000006  6.1611091299999998 49.7611161600000003
 35.0792223300000003 26.4896756400000015 11.9784718199999993
 22.1758826499999984 10.0597089900000007 23.5289980300000003
  1.8698923999999999 27.2815617199999991 21.2077629200000004
 38.8713169800000031 10.2244679600000001 42.6330555700000033
 33.7649006799999967 36.6857062300000010 26.6645483600000013
  1.0642259400000000 36.4453511700000021 37.0171396499999972
 47.0660420600000009 38.9688799999999986 49.9662233499999999
 32.3158710399999975 32.8445930700000019 19.0756477000000011
  4.4109589900000001 34.9877557900000014 39.2115292299999965
 28.1718054900000006 33.5348998600000030 21.0619225000000014
 37.7315112599999978  3.5096885400000000 37.3353253300000034
 44.8128087899999983 18.8773126900000001 20.9943723700000007
  2.4164726500000002 13.6558340499999993 13.6028116600000004
 22.4556238499999985 11.6700386700000003 38.3398978700000015
 28.6634738899999988 47.0057084700000019 24.9422163599999998
  3.8303387600000001 26.5035426799999989 45.0418785900000032
 18.8534450299999996 19.8506854299999986 30.4700794100000003
 10.6245987399999997 17.6310225000000003 24.5951681499999992
 20.9911178700000001 47.7179779000000011 46.0545014599999973
 38.0059905800000024 16.6836108600000017  1.4477650200000001
 32.5866508399999972 33.8407508499999992 11.4995157900000002
 22.3618242800000004 35.1806083199999975 30.4839660600000002
 44.0174956500000008  2.0494657100000002 45.3702090100000035
 37.1027532199999968 35.9733792899999969  4.5857066499999997
 21.9717384399999993 29.0079919100000012 37.3199606700000004
 36.5790158399999967 33.5193030699999994  8.9266844800000005
 30.7861122700000003 22.1888864300000002 28.6142011099999998
 18.8780111999999995 32.7343175800000026 15.6755768100000008
  9.4193927100000003 11.7332034299999997 49.9501039700000007
 11.3974901200000005  7.6164504099999997  9.6820122099999999
 25.5792836799999996 11.0207724000000002 26.1216774200000010
 27.0324632200000003 34.6093144399999986 28.7478417499999992
 14.9763339700000007  7.2450918199999998 18.2581838099999985
 15.2952485300000003 17.2420830299999999 37.6895075799999972
 47.5539633300000020 39.4616778199999985 32.4191079599999981
 17.9475273299999998 44.0918723999999997  2.0994689800000002
 35.7751317299999982 22.6389121799999984 42.1970685900000007
  6.1318049500000003  7.2457420700000004 29.1869258400000007
 44.6626116500000023 44.5139961799999995 46.7337254899999976
  3.7242856799999999 44.0694663599999998 25.5211898700000006
 34.6381622500000006 13.5929826499999997  7.2593607499999999
  8.0761385699999995 35.6608678799999979  2.2063798999999999
 32.6269454899999971 11.0729182399999999  2.5368990600000001
 37.6625371100000024 44.2612214199999983 48.3484396200000006
 42.2247565999999992 21.4841992499999996 34.9367300700000030
 31.6222475299999992 25.1142205800000013 44.7052669199999997
 11.4211598900000002  5.4343217299999997 34.6453340200000000
 34.1288521999999972  3.6190006900000000 24.5445948200000004
 21.0051538999999998 33.6215740700000012 27.7953809999999990
  6.9683916000000004 17.7575672599999983  1.4329282299999999
 33.2248300899999975  9.7193803200000009  3.6250681899999999
 26.5210123200000005 38.6539911300000014  7.6289770199999998
 20.2168237499999996 34.1567865499999996 23.1115443300000010
 35.7255105599999965 38.6559167599999967 39.9929704999999984
 11.8552427799999993  1.0653935600000000  6.0695807700000000
 11.4440192300000003 39.6311799899999997 31.2421714600000016
 37.1756724999999975 11.5276294099999994 44.8675200799999985
 38.4099591700000005  6.1837739999999997 30.6896826199999992
  1.4957311799999999 38.7539472799999984 37.5920093100000017
  8.9004645900000003 40.1083036500000034  0.2594668000000000
 10.8584298100000005 47.6298239300000006 14.4507980499999995
 24.5628382899999984 27.6231268800000009 11.8934423700000007
 43.0859430200000020 45.4443291299999999 32.8396443899999966
 35.9032563100000033 26.0288039299999987 16.1077247300000010
 22.5295523499999994  4.1863788900000003 10.4699539799999997
 18.5164879199999994  6.6124082599999996 34.7455817000000025
 18.9915829699999996 41.5349085499999973 27.2080721200000006