Na Cl 
 1.0000000000000000
    50.0000000000000000    0.0000000000000000    0.0000000000000000
     0.0000000000000000   50.0000000000000000    0.0000000000000000
     0.0000000000000000    0.0000000000000000   50.0000000000000000
 1400 1400
Cartesian
 19.1118876799999988 13.4961900099999994 30.4655506699999989
 34.5100271399999983 10.0262149500000000 10.5946925800000002
 14.9981095500000006 23.2272495899999996 30.3837862500000000
 10.2954582099999996 35.7661797100000030 22.1824416299999996
 20.2964679200000013 22.7363309700000009 29.5146061000000017
  1.9847430800000001  7.5768845400000000 44.6985040300000023
 47.7572338599999995  5.8295608999999997 27.4300311100000016
 16.5329015699999999 18.4766162700000010 36.4897147000000004
 32.6349476700000025 45.5655520999999979 20.2341347099999993
 25.1020637700000009 40.3857665299999979 13.5781109200000003
  7.3101709899999996 12.0437678899999998 19.6069895400000007
 34.6731670799999989  1.9191605300000001  5.3309952899999997
 48.0377802599999981 20.9728569799999995 40.8072987099999978
 48.2693566000000018 13.0763784600000008 24.6927393899999998
 10.8710086700000002  9.0427540999999998 31.5681305899999991
 15.5707605000000004 47.7717618200000018  0.0009335600000000
 15.6903050900000007  6.9576694200000002 37.5499366000000023
  1.7844801299999999 41.7575639200000026 19.3767505600000014
 15.0465868000000000 37.9843776100000028  3.4344212399999998
 22.3177821700000010 44.9649516699999978 25.9427218400000008
 19.3258860699999993 10.1671854499999998 29.8859372599999986
 42.9475983299999982 20.2851980599999990 33.3237161099999994
 21.6966334100000005  5.3177772100000000 25.8815930099999996
 41.9337403199999983 30.3735993700000009 39.0846303399999968
 45.3820915900000017 36.8133047500000004 21.2129907499999995
 26.7356167400000011 45.5106148500000032 46.9037425499999969
 11.2009656700000004  4.6299614299999998 15.7616979300000004
  6.8570811100000002 46.9622167300000015 43.9765455399999965
 13.8009009500000008  1.7422354099999999 31.7505186600000009
 30.9670707400000005 13.5578517200000004 16.8138020799999985
 39.5714748600000021 27.7779757600000003 14.4386659200000000
 20.6581354700000013  1.2828494900000000 10.8513679599999993
 28.9413688399999991 17.5860493099999999 18.7306861699999985
  6.6424813900000004 40.1846393399999968 33.2334402600000018
  4.4305132000000000 13.6353929600000008 20.0494629199999999
 21.3232821000000001 30.4021755099999993 19.3638674100000010
 48.5195156400000016 17.4993829199999986 12.1287106799999993
 47.2404418500000034 20.1061735000000006 24.4580536700000017
 16.5080804199999989  1.3076556399999999 27.7683195100000013
  2.1459858199999999 17.5836364799999991 28.1783538500000006
 43.5932175700000002 21.2076857799999985 37.5748789100000025
 20.9898620499999993 26.6114339599999994  8.3705475600000003
 33.7928289000000035  6.0753331099999999  8.1235500100000007
 32.5050019299999988 11.5675128100000002 15.1878294599999997
 11.8497438099999997  8.6441902899999992 32.9062875300000002
  5.9744841900000001 13.1558025799999996  9.5739330200000001
  9.0922833900000004 14.0069833599999995 15.3692579400000007
 11.1182549099999992 14.5102535699999997 23.8317087399999998
 39.5287993099999966 10.5299736700000004 27.2673960400000013
 33.1253055399999994 37.0102183799999978 30.7403678499999984
  3.3623716799999999 11.3808419099999991 27.8100532399999985
  3.5647647700000000 13.0014973999999999 16.1667782200000012
 15.0415268999999991  2.9426579099999999  7.2515681900000004
 27.1065448300000007 29.6989648700000011  0.5026393300000001
 47.8592857200000026 21.0151680399999989  1.9292102700000000
 24.2369574099999987  0.5432602300000000 30.5746074199999995
 17.4269244199999989 44.3186529399999998 13.5999960899999994
 25.1342647600000006 31.5878098300000012 46.3197778199999988
 46.5058119500000018 23.1814195299999994 10.1180021900000003
  3.2628594899999999 38.8794700799999973 47.2536281000000002
 41.7274284100000017 12.8893507500000002 31.3180077300000015
 11.7558649299999995 30.8219292600000010 24.1650349300000009
 41.7421361399999995 10.0820932600000006 49.7413943800000027
  3.6152661799999999 11.7786786299999999 14.2518033299999995
 30.0586343400000011 45.4673813200000012 20.2777934799999997
  8.8750532399999997 13.0198113000000006 23.9684895500000010
 38.4038518600000032  3.5382019400000000 16.5599591400000001
 23.2332805499999999 31.7462250700000013  8.8048156199999994
 32.5360564699999983 33.5010349900000008  1.8950878900000001
  0.7421406000000000 23.1570463999999987  0.4787914200000000
 47.0474368400000031 26.2709920600000011 36.5636360299999978
 25.0307618100000013 42.0136707999999999 23.7651869299999987
 21.4967319400000001 45.5736757199999971  6.7678856700000001
 47.8544471499999986 39.6933216600000023 25.6570616600000001
 18.2353593700000012 31.6849766399999986 29.4024669199999984
 17.2615858099999997 15.4727222700000002  0.0431966000000000
 26.0053179800000009 21.3793126700000009 22.1081000600000017
 20.8377468499999985 20.0113024700000004 29.9605389700000018
 46.7785205899999994  6.5955727399999997  1.7910274900000001
  1.7990549300000001 36.7162693200000021 40.3385117400000013
 19.3667674800000000 47.2609694300000029 15.1132703399999997
  8.7345430200000003  1.4645413000000000 14.5456908800000004
 19.4266270699999986  3.3211718100000001 18.9346040000000002
 33.8894090499999976 29.2979708999999993 10.9969316999999993
 25.4311372599999999 21.1240034600000008 31.1262342300000014
 38.6186909600000021 14.3389244399999995 44.3030594100000030
  1.5195426500000000 38.9533827699999975 39.5042630800000012
 48.1495770599999986 49.9416762500000004 19.7527287200000004
 34.1115201300000024 12.3187976199999998 42.0316803199999995
 26.4511919900000017 15.1838371100000007 44.7503669600000009
 19.4175448599999996  0.6764484100000000 19.0684384999999992
 33.2458493500000003 12.9899491400000002 22.0751685000000002
 17.3569128200000016 17.6338177499999986 21.5749062199999990
  9.4488942599999994  7.5657841299999999  8.1339049400000007
  6.5403664700000004 23.9393418099999984 48.5177465200000029
 37.7658321500000014 30.3408865699999986 39.2806245900000022
 39.4574765300000010 11.8080392300000003  7.7153420600000002
 21.7539643699999985 18.8792292300000000  3.2057516499999998
 29.0680228900000017 46.2606582499999988  2.8832756000000002
  9.2130029800000006 42.9411685099999971 12.2190826399999999
 16.1219246799999993 11.1880305000000000 37.2286848199999980
  2.5057676500000001 14.4368813700000000 40.6651405599999975
  9.0173484300000002  4.5751199400000004 44.0407986000000022
 43.7021146499999986  1.4409210299999999 17.5597626099999999
 26.9301848799999988 15.6173526099999993 30.8453991700000003
 18.6238285700000006 10.6867868999999995 12.8273756799999994
 39.7030011200000033 38.3398862700000009 28.4685972999999990
 21.7147837000000017 10.3696936999999991 33.4420538700000023
 10.5993311200000004 42.9581390199999973 47.4425012900000027
 16.1192354100000017 15.9895740800000006 36.7714898099999985
 18.4292930000000013 41.1275036600000021 29.9539996700000017
 36.8724257599999987 14.8597888499999993 48.4711765300000010
  5.0639473400000004  9.7629283600000001 35.5369470500000020
 19.4690366399999988 16.0987517900000014 21.7212865000000015
 19.6622011800000003 12.6152473300000008 24.4619219900000004
 31.5229038199999998  5.4444291399999996  4.5205919799999998
 27.5893936999999987 44.9399049800000014  4.9830592500000002
  0.2768037400000000  2.2404184300000001  4.7126245200000003
  5.0803768900000001 35.8944538399999971 28.0857718699999985
 37.5677862399999967  1.7833013099999999 21.9451101400000006
 31.4660661300000015  0.1734500800000000 15.1754133899999992
  3.1729123299999999 27.1375926099999987  1.5190047000000000
 29.9119696899999994 30.4745106899999989 35.1011112500000024
 44.3767716799999974 40.4017083099999965 31.5115146000000017
 14.0259158399999997 33.5675182000000021 19.2783492500000015
 11.2158014700000006  3.9753468000000001 13.6537133500000003
 27.9603521000000015 29.6377516499999984 21.6919641600000013
 26.8415986900000014 26.7492132600000012 24.0272924000000003
 26.7032831600000016  2.0800129100000002  8.7769018800000005
 13.3898296699999992 42.8672445899999985 19.7798321600000016
 39.6390817799999979 14.0474400999999993 45.3257844800000029
 40.4596908199999987  6.0236224900000002 39.0232444000000029
 13.6686160500000007 28.4299954200000009 22.9330338400000002
 35.4997684599999985 44.6085844199999997 36.4782861400000016
 40.5551061700000020  9.6693802200000007 13.2733647799999996
 35.4418127300000023 20.5464927599999996 24.9037758099999991
  7.7600345300000004 22.9003196500000001 35.6722836100000009
 44.0706049300000018 44.6570540299999976  1.1070617000000000
  6.3860156100000003 29.7644201799999983  0.6099731900000001
  1.8193993700000000 28.6452551299999989 40.8029243800000003
 24.7500090499999992 23.4021191799999997 19.4171036900000011
 43.2617461700000021  0.1679516600000000 22.7636017700000011
 37.8549648600000026 28.3944442099999996 25.4237855900000014
 47.5644161399999987 15.1421451800000000 44.0340046500000000
 29.5161697899999993 28.2656910500000009 11.4694692899999993
 17.3704349499999999 44.9002328099999986 38.2127909599999995
 42.3777208400000021 42.3541498100000027 46.1958600899999965
 13.8205140400000008 31.3795169700000010 45.5417630500000001
 20.4115389000000000  6.7343090900000000 33.5329177500000029
 37.7485904300000001 40.5593904600000030 31.6754992699999995
 20.1162865699999998 44.4284020200000001  8.1527478599999998
 23.2332245999999998 30.8058868100000005  4.5395702099999999
 46.5565947300000005 26.6876843900000011 39.9115128199999987
 42.7959032799999974 20.7464082300000001 34.8830596900000032
 29.5842755699999991 22.9195447700000017  8.7890256200000003
 17.1536578400000010  1.5273353999999999 19.9261070599999996
 48.0812813399999968  2.0954465000000000 18.1693887899999993
 22.9173738799999995 22.3028834499999995 44.5622238099999990
  7.2955282700000001 15.9435865299999993 13.8588276799999992
 25.3167442600000001 48.5208276700000027 39.5505696299999983
 26.4236934599999991  3.0159924700000000 39.7853744199999966
 22.7878243299999994 44.9635191300000017  1.8660707599999999
 13.0513318399999996  3.7342507600000001 11.5525945599999993
 14.4567854100000002 25.1923376300000008  7.6186246700000000
 46.2248955600000002  1.8196817500000000 33.3911654500000026
  5.3176543900000004 23.8173881200000004 48.8421175599999984
 39.4698704300000003 20.1123355299999993 28.0232241299999991
 36.3279107199999984 13.1954641800000001 26.1665427199999989
 31.0835754400000006 21.6524381499999983 12.5280277200000008
  8.5618285000000007 48.6516607900000011 38.4629294900000005
 46.4559737299999966 35.5505533899999975 48.1508505799999966
 21.3456222199999992  5.8726320500000000  1.3269252100000000
  1.6320884700000000 30.5109169899999983 46.9819213700000020
 25.1524913000000012 37.9212942799999979 43.1930471200000028
 45.5429121800000019 39.7250616399999998  9.1109993899999999
 28.5667645400000012 21.6116445199999987 26.9095143400000012
 18.2075604200000001 14.4679498700000000 12.8334538100000000
 41.8582511600000018 11.6271825799999995 18.0576124100000008
 44.2917409100000015 11.2894635200000000 42.0134385300000019
 19.8613939399999992 10.4480061299999996 49.6389648399999999
 32.0820822499999991  3.5564259599999999 22.8511811999999992
  9.8024938800000001  0.5145854600000001 48.6377453400000022
  4.5859716400000003 26.4253338699999993 30.5863347700000006
 14.5285557599999997 31.4365868800000001  4.7157524600000000
  7.6516644800000000  1.5249691200000000 30.1560203499999986
 32.2339424299999990  5.8704463300000000 14.5915131900000006
 39.5621020800000025 20.2495979499999983 34.9926990900000021
 22.2935260600000014 37.2925074899999984 25.1734595600000013
 40.3348756700000024  8.2553457500000000 47.5960323299999999
 46.5154426400000034 35.0444319599999972 41.7679321199999976
 43.6351666199999997 26.2453778799999995  6.0659772299999997
  0.8792694000000000 27.8807447000000010 41.6760990800000002
  0.1972762900000000 15.6225534699999997 18.2561608299999989
 31.2951525599999982 27.6290526700000001 11.4882957000000001
 33.7858482899999970 38.7521881300000004  8.0259428400000008
 42.0213067400000000  2.1023813599999999 34.7235929799999994
 49.4272959899999975 24.5636729900000006 41.6518937800000018
 43.3786890000000014 15.6259776200000005 25.8058019099999996
 18.1127056999999994 20.2447494100000007  3.5033683999999998
 31.1127111899999989 11.3370144800000006 41.2023528200000015
 37.9438545499999975 22.3634197199999996 11.9953146700000008
  5.2537021700000004 48.9724002800000022 29.1314618299999992
 12.4790305799999999 35.0669505199999989 20.2374533599999999
 30.8786408899999998 27.3174158399999989 23.8080643700000003
 42.1378564299999994 10.9529950700000001 36.9881532599999971
  9.8917736699999992  1.0401018200000001 30.9912913600000017
 20.6339265500000018 44.4036078399999994 41.4369340000000008
 30.5497629000000011 49.8650800400000023 32.4002929600000016
  1.7238600399999999 22.9157265800000012 44.6167108799999994
 23.0597779500000009 15.6879972300000006 18.1694007299999996
 23.1181202600000013 46.2471493299999992 25.8387381100000013
 21.6714121000000013 31.4232261500000014 30.1619569900000002
 32.0111501599999997 11.4008153399999994 13.5033793299999996
  1.2964743400000001 39.8442800799999972 12.8153179599999998
 37.0489521100000019 31.7381541600000006 23.1570096599999999
 49.8612908899999994 18.7159523499999985  9.0110708800000001
 49.0682272700000013 39.6957299899999967 16.1338695200000011
 11.9449676100000008  9.0705710300000000 49.0872552100000021
  9.4983959400000000 39.5405331999999987  7.7415654900000002
 12.4912533999999997 40.4958387599999980 13.5619716300000004
 36.0572127800000004 13.5751821199999991  8.0858302099999992
 48.5483520399999975  2.1527777700000001 31.7359279500000007
 35.7410948200000007  0.5806254500000000  8.5718684399999994
 17.3928778500000014 22.0979690399999988  0.5656919700000000
  7.5849021099999998 29.4497993899999990 12.7783676400000008
 16.0249860999999996 31.9414362899999986 39.7197693299999983
 20.1631387999999987 31.8738492399999984  3.7840996400000000
 49.3626845499999973 38.6392854999999997 10.4714531700000002
 43.7134837500000017 42.5213351800000012  6.0803886100000000
 43.0913105099999996 35.6557570299999966 16.3084554100000005
 46.2100695800000025  2.6394327600000000 10.9464798400000003
 27.4866817200000000 18.6596367799999996 12.5154083400000005
 46.4680042099999966 37.7467597999999995  9.7919763100000008
 23.7458614499999996 46.6934073500000011 26.0972779599999996
 16.9506712700000008 39.9319722999999982 36.6583936099999974
 17.6213816399999992 12.5611495499999997 15.2405170099999996
 47.3693808100000027 37.1832111299999966 38.2295039899999978
 23.2735486099999989  8.5315067800000008 39.0344959199999977
  2.7728719599999998  3.6591152700000000 48.7503052200000013
 46.3798622099999989  6.3441940800000003 26.8699793000000007
  3.7421578800000002 44.4474751300000008 28.7145716299999982
  5.8053381799999997 20.3187376099999994 47.0230491599999993
 16.3872072499999994 19.7923339100000000 49.7559651999999986
 48.5070561300000023  8.0923511900000005  8.1464792399999997
 17.8765982200000018  1.9863505400000001 34.5935112299999972
 13.1431742400000005 47.3294511200000017 16.0849606499999993
 39.9335779199999976 13.6441061300000008 16.4917886799999991
 27.4923441400000002 13.8278956599999994  5.4423398399999998
 19.4056296999999986  0.4184423500000000 32.7605464199999972
  6.5036517099999998  6.8743446900000000 37.1111608699999991
 27.2808241799999998  8.8119679600000005  2.7455664299999998
 44.7349093600000032  9.6216086099999991 10.3759254100000007
 38.1784404799999990 15.0491570400000008 31.1824140499999984
 32.8329668499999983 23.6739037699999990 37.3006097399999987
 11.3479801699999996 25.5027832799999992 25.2786121199999982
  7.6339277900000004  3.4244338100000000  4.4589882500000000
 42.2155252599999997 16.3330810900000003 10.0939117199999995
 48.3742548600000006 26.1014503299999987 37.0757224700000023
 31.6675138800000013 35.9057933300000016 18.6684289300000010
 10.2850863300000004 11.4459353299999993 21.8351242200000009
 32.9328229600000029  1.9554406200000001 15.0904680199999994
 25.4960236699999996 11.6698620000000002 35.3705733700000025
 23.2266523800000009 20.3464676699999991 13.0821646000000005
 21.9404645800000004  3.3882498100000000 46.3144868099999982
  7.5798651899999996 44.7943110200000021  7.9853594599999997
  9.9363990900000001  1.0594599200000001  6.3428531200000000
  4.3323837500000000 14.3736420000000003 27.8011501000000010
  3.9296716699999998 45.9917623500000019 33.5498686099999972
 22.6417363000000016 39.6620415599999987 49.9324462100000019
 14.6235244000000009 27.5745085799999998 44.7657071000000002
 27.2392794599999988 10.5699122899999995 48.5159128199999969
  6.9467639600000002  4.2618470100000003 28.8626188799999994
 44.0354817799999978  4.3421957200000003 29.2834599900000008
 17.1120041600000015  1.4539093300000001 35.8540279500000025
 48.6477422999999973 22.6048148100000006 19.1225278000000003
 42.3248144100000019  3.1557279399999998 38.3195225600000029
 36.2155998100000005 25.5859419400000014 22.9261132500000002
 19.1854424899999998 49.7318689000000020 43.5206218800000002
  1.0919796500000001  2.9020461700000002 24.6900346500000012
 15.4123254700000007 34.9541033300000024 23.6146929599999993
 42.1444963400000034 22.5499769800000003 47.4630654799999974
 11.7414848700000007 39.1362114800000001 12.3062752199999998
 31.5676974299999991  8.2906718200000000 41.3212310500000015
 35.9302277399999994 29.3375899000000011 26.8734286199999985
 11.7148142100000001 40.8824774200000007 11.7979330099999995
 37.8600413400000022 13.7147826399999992  4.3518965400000003
 42.3251236300000002  8.3528284500000005 35.9877390300000002
 45.9298034199999989 42.2060456999999971  7.0101167999999996
 19.0331236500000003 39.7092661300000032 43.6358582900000016
 37.8702754600000020 35.7195956799999976 39.2445917900000012
 33.8541971900000007 37.4921892500000027 31.2246887199999996
 43.3432476600000030 19.9633611900000005 24.2115619700000018
 23.7220383800000008 46.2990952600000014 48.8940994299999971
 13.1290361299999994  9.7103148000000008  1.2609201299999999
 42.2845517499999985 26.4612321199999982 33.9281847199999973
 31.0005217699999989 25.7693919700000009  6.1708499000000003
 13.4742822800000006 12.2622692999999998 41.9601496699999998
 24.2355663200000002 27.1631560199999988 31.1631979299999990
  9.8676650800000001 45.8470514300000005  1.3933128500000000
 17.4089875399999983 42.8535614800000033 39.8078412500000027
  0.3878359500000000 18.3587306999999988  5.1868128599999999
 24.7637622899999990  4.5527613000000002 18.2592438900000005
 33.1119781499999988 13.0167909500000007 23.2054845800000002
 14.5792870600000004 34.0776466200000030 43.0067838599999988
 15.0163396099999993 29.6198231300000003 20.3673560299999998
 14.1527410200000006 15.1183178500000004 43.5680812900000021
 48.7422297499999999 10.6553578299999998 34.5991046999999980
  7.1527391500000004 16.0868480200000015 21.6546351699999988
 49.4532292000000027 10.4231773699999994 32.3420430700000026
 22.7178509200000001 18.9204462199999988 45.9396086400000030
  7.0023813300000004 39.0230427899999981 10.2801894800000007
 29.1446188399999997 33.6087895000000003 12.9251522100000003
 33.0331468199999989 38.0985653899999974 22.5885161100000005
 45.1902120800000020 11.8944578199999995 10.1525151499999993
 33.3220435200000011 43.5854889900000018 41.3134351799999990
  4.9050667800000003 39.4573910800000007 10.3719004699999999
 20.5312177899999995 18.1773415900000010  6.5800212800000004
 40.4176865199999966  0.0573316800000000 13.5735828999999999
 31.2077302600000017  8.3225319700000000 26.7947633600000010
 39.5878632499999981  3.2176502100000000 29.0470188900000004
 43.2464030300000033 42.2957369800000009 14.4514043599999997
 34.7531623799999991 46.4001786899999971 47.8032064100000014
 28.4902139500000011 35.0258016399999974 28.6482028799999995
 40.3457983799999980 41.8334023299999984 43.9929442899999970
 39.4147121100000035 43.0663745599999999 16.5572050600000011
 26.9453935199999997 21.2289205400000007 44.4674914200000018
 15.1283150099999997 11.5904463300000007  0.6314283500000000
 12.4162324500000008 29.6188362500000011  3.7809316599999998
 46.1183292099999989 10.7589899100000004 26.3434959199999987
  5.1359821400000003 20.4517727100000002 32.9439613400000013
 39.1582801200000006 33.2139584900000031 27.0002677700000007
 43.5004049400000028 11.3058537500000007 17.4840271300000012
  4.0440100699999997 17.6772963599999997  2.3198734299999999
 40.1127064300000029 24.2570055099999990 37.4915446299999999
 20.3906457500000009  5.5831210699999998 35.5158466099999970
 14.8339403399999998 14.0352887200000005 41.0974612899999983
 25.0318737099999993 10.7014753200000001  9.6957151800000005
  5.8850692400000000 10.3586825400000002 48.3773784500000019
 28.5995613700000000 22.8279186100000011 18.8279998299999995
 42.1932160400000029 41.3819041499999969  5.6630972100000001
 29.6748096699999984 44.5261693799999989  1.3287140799999999
 31.6974772999999992 39.5009583699999993 42.6073997000000020
  2.5667818300000000 39.9021749999999997 35.8552857900000035
 19.7883309400000016 32.4781471300000035 10.2188410300000001
 48.0611660300000025 14.0174256899999996 40.8736319899999998
 13.1329183799999996 24.9591466400000002 38.3775591100000000
 11.6359578500000005 15.5435845100000005 41.0248518399999966
  4.6848983799999999 39.0870029499999987 35.2586169200000015
 41.5745624099999986 43.6703727800000010 17.9552865100000005
 24.5003154599999995 26.8019621199999989 10.5772709099999993
 22.1921130399999988 32.8438963400000006  7.3658340200000003
 47.5723391900000010 48.3046875799999995  6.8841453699999997
  1.8311894000000000 26.8003157700000010 32.9071423899999971
 20.3421328800000012 40.2272758000000010 49.8244186599999992
 49.0044684599999982 18.1014246199999995 30.6435190499999983
 25.6247014600000007 24.3574804299999990 26.1735435900000013
 48.7471674800000017 43.6438295499999995 21.8432383899999998
 19.3076986200000000  4.4907247000000003 25.6099825800000005
 26.9772963700000012  7.4201309200000001 10.1402996600000002
 28.0164206100000008 21.9811339699999984 36.9186878599999986
 42.3868782999999993 46.2636144800000011  2.5685895200000002
 20.2841404700000005 15.5488575600000001 29.6490920600000010
 12.2902739600000004 12.6344750700000006 47.6224916700000023
 41.2175703300000009 43.7045148099999992 41.7803760999999980
  2.7811889299999999 43.4423747399999982 35.9923256499999979
 23.0171927099999998 49.9579194499999986 42.7521412199999986
 35.2375300499999966 37.1676047699999970 25.9334340800000014
 13.2266032800000009 49.5213335600000022  5.0531606699999996
 28.4713455599999996 17.9048411200000004 26.6646464499999993
  2.7128506200000002 44.8804235300000016  5.2782600300000002
 11.7163317300000003 16.3874408799999998 23.7188233599999982
 42.2642766199999969 35.6972013800000028 12.8635371900000006
 47.4694889299999971 19.7003790300000006  4.2703053500000001
 21.0219640599999984 16.1499824700000012 32.7553446300000033
 19.0772373100000010 31.1274444099999990  8.9582507099999997
 11.3196403100000005 49.1946459700000034 14.4148919099999997
 21.0883313900000005 31.5856518400000006 10.0504260799999994
 17.5111094799999982  9.2170371899999992 10.7441359500000004
 26.6928821499999991 27.2702291300000006 30.7409361099999998
 12.9132814099999997 33.5206024299999967 30.7649939500000009
 17.2532575500000007 25.4996733400000011 23.0098136999999987
 25.9389242499999995  5.4998881700000002 36.6204309000000023
 29.5821062200000000 36.4592296200000021 20.2722924599999992
 16.4194139499999991 11.0902502300000005 43.8355368499999969
 43.8678939799999981 37.6941188899999986 25.0561501900000003
 18.7163231500000009 15.2432087200000002 42.6089256699999979
 28.2137938900000016 39.2339201599999967  4.4961189199999998
 16.2706440900000011 10.7151468100000002 39.4724381799999975
 13.2685008999999994  3.6946031700000002 45.1955585700000029
  1.7529164699999999 11.2670809100000007 15.8288258000000006
 35.0751680699999966  8.3497830000000004 34.8028927499999980
 32.2184577000000019 45.6186240799999965 12.2148308500000002
 44.6620861999999974 35.6827211000000020 19.4935847399999993
 28.6787208100000015  3.2606039400000002  0.9704939800000000
 11.0923096399999999 28.4480462199999984 26.3128465399999989
 40.0117925300000010 28.1970882500000002  8.4621403399999995
 23.1927040099999999 49.7763650500000026 41.3673798700000006
 11.5535528700000008 30.5630620200000003 23.3834468599999994
  5.5914359400000002 25.2638874199999997 10.1559141200000003
 40.4486693400000021 20.7855929999999987 43.4614672800000008
  6.8805090199999999 40.7150718600000019 48.2127057800000003
 10.9461213700000002 21.4619426599999983 10.8703241700000000
 47.5383826099999993 27.5964495399999983 13.5273999099999997
  5.0103409499999998  8.8002995399999993  6.6343621099999996
  3.7240649399999999 40.3593760199999991 20.0327206000000011
 39.9351757000000021 40.4979443399999965 48.9504655100000008
 10.4738597299999991 34.1605514000000028 36.3873484699999992
 12.1657586500000008 19.9055974900000017  3.3770649900000000
  8.3313582999999998 25.1388968599999991  9.4394440799999995
 48.7366637399999973 17.1075487099999997 26.5712082500000015
 32.2970741299999986 16.9249802199999984  8.1425712499999996
  2.1949681700000001 40.8300272399999997 30.2677877399999993
 10.7085264799999997 28.2045551000000003 33.9575801000000013
 25.0486902799999989 43.3374962999999980 23.3002657900000010
  7.5670951300000002 30.1678736399999998 31.4522153399999986
 17.3831835900000016  9.1666572100000003 14.0076804999999993
 27.0861153600000009 36.3408840399999988 31.2381117500000016
 18.9442113399999990 45.3599290699999997 14.3278254500000006
  7.7623307500000003 11.4929290999999996 11.6593963800000004
  9.4748808600000007 44.3225817499999977 29.6314648500000004
 16.0297180600000004 11.4714354299999997  0.4153225600000000
 30.3262202899999984 42.7844289399999980 27.8972346199999990
 18.8223133400000009 46.6203338700000032 47.9513256600000020
 17.9303142300000005  4.7913066799999999 27.4914250600000010
 48.3809906500000011 39.3098816700000029 31.1812133699999983
 12.6530650399999995 10.0640660200000003 46.7575959600000033
  4.9153221599999997 11.8194778700000001 49.9646244600000031
  5.4432495500000000 34.6952246900000034 22.6413588399999988
 33.3179866400000009 25.4013773600000015 20.9493530999999997
 45.7775714300000018 33.6430608000000007 38.9228419100000025
 26.2040088299999994 10.7764193600000002 19.2801927999999982
 42.2003973699999975 12.0786055999999995  5.1242834899999998
 23.8326370400000016  5.1306664299999998 31.1106370699999992
 26.4771918399999997  2.1632949400000001  8.4979995400000004
 25.8783128900000001 36.8047952599999988 28.1939189100000007
  5.1950885199999997 13.8528228099999993 24.3929734300000014
 22.7044956900000017 44.4590018999999970 22.4449944099999996
 33.0210294500000003 34.4419584799999967 15.9961228599999998
 46.8368512600000031 36.9590656100000032 21.0156612900000006
 10.2192919100000008  5.6390480600000004 25.4807953100000013
  5.7268473300000000  1.1231532600000000 26.8367709699999999
 45.6097212800000023 12.5856075300000008 26.3056922600000007
 19.7698031400000005 21.0813930800000016 14.9735325100000001
 10.1608717199999994 23.7709356999999990 18.1163909899999993
 32.1834183699999983  6.7125122299999997 17.1930949099999992
 14.3460698499999992 14.3959564699999998  2.8403736899999998
 38.1606027899999987 15.2510822400000006 24.9391336999999993
  2.0201655800000000  2.9229243299999998 25.5892135799999991
 27.9126183999999995 27.3773787400000010 31.6045467699999989
 27.6174896499999996 17.1485900700000009 16.3533500700000012
  0.7546343800000000 33.1400988999999981 35.6422302000000002
 38.9629940199999965  1.0405245900000000 38.0968520099999992
 43.7917817399999976  8.4756287100000005 49.8917073000000002
 29.9246094099999986 42.9103473199999996 44.2073541000000034
 43.0003047900000013  6.1225856500000004  2.2969355600000001
  4.5959309900000003 43.8121977200000003  1.6071361500000001
 11.1372681399999998 34.0656062500000019 40.6442671000000004
  8.1972158299999993 20.6064872500000007 33.2312773600000000
 18.0785932699999989 46.9170255800000007 34.4489314300000018
 33.1905240600000013 33.1378434700000000 47.7352106900000024
 35.6861225999999974 26.6624729500000015 16.1828807899999987
 35.6773758900000004 29.6566486000000005 39.2930724400000031
 48.6684577099999984 20.7686776900000005  9.1658647000000002
  0.6879826500000000 12.9244745099999996 21.6430403200000008
  4.5785912299999998  2.3828595699999999 48.7207172900000032
 49.0954900199999997 47.9006925600000031 16.9398357699999984
  7.8197946800000002 27.2892008699999984 49.5989592999999971
  9.7089162099999999 27.7548113699999988 25.1147531599999994
  3.6562854400000000  1.1894592300000000 41.2413161899999992
 42.8012148700000026 10.0182804999999995 27.2404041300000017
 29.4721593300000002 38.5818361999999979 44.9209293999999986
 36.0604685200000006 18.2944167499999999 24.2623013800000003
 26.4992769499999987 23.3476403499999989  3.7913807500000001
 21.7361856099999997 20.0715814600000009 43.0695608199999995
 20.1087454000000001 17.6838737299999984 12.8657739400000004
 35.0626710299999971 48.3119459099999986 28.8749369700000003
  1.0656451600000001 10.2981680799999999 31.3109529799999997
 43.1867619699999992 39.9084496999999985 41.3140462900000003
 15.1760024799999993 13.0736607700000000 29.0164831200000002
 30.0318475300000003 45.2613594500000005  7.6681989499999998
 29.4197756000000012  8.1685138199999994 38.2117825699999969
 25.4297182100000008 47.2739257799999990 32.8706467399999980
  6.9598338100000001 23.9269009200000013 39.4237695699999975
 45.2951264300000034 25.1899307499999985 17.1660785599999990
 10.2824305700000007 16.8105861700000005 35.5217861200000016
 14.6592802399999993 28.5230548000000006 36.9820589400000017
  7.4645573100000000  6.8146675400000003 34.1173299700000001