Na Cl 
 1.0000000000000000
    50.0000000000000000    0.0000000000000000    0.0000000000000000
     0.0000000000000000   50.0000000000000000    0.0000000000000000
     0.0000000000000000    0.0000000000000000   50.0000000000000000
 Na  Cl 
 16900 16900
Cartesian
 47.2329150200000001 43.6026973900000030 30.5349545700000000
  0.9814504500000000 45.2377779899999979 11.3345985599999999
  0.5979751500000000  0.1682995800000000 28.6110735600000012
 16.3133760300000006 28.9109222300000006  5.8698522000000004
  4.6058486500000004 10.4982102099999999 43.4190092999999990
 43.2893779600000030 14.5753118700000002 17.2666714799999994
  0.9476315000000000 26.8426233799999991 43.9711388200000002
 22.9301014300000006 36.2147733299999999 11.6953104600000000
 13.0828273500000005 33.0793446300000014 14.5452245700000002
 11.5893008900000005 31.3801252400000017  5.7649578899999998
 41.6473009099999985 16.1864263500000014 45.2677427499999965
 14.9524600799999998  5.9965315300000004 33.7054294499999969
 37.1526958099999973 25.3585260900000016  0.7480705600000001
 22.8219457299999995 18.4419005700000014  3.0229294900000001
  6.3759712300000002 10.9484613000000000 10.7890568699999996
 31.6788541799999983 26.5021465399999983 21.5768582799999997
 42.2570341899999988 13.9736802800000000  5.6445465199999996
 17.8933895700000001 34.1985736199999977 25.4268338800000002
 48.7970032699999976 31.2339985700000007 49.8138916699999967
 22.0772604799999996  2.5168767200000000  1.1470509200000001
 28.4848674099999997 45.1665603499999975 14.3798583000000004
 32.2784838899999968  4.4787100500000001 23.6798727299999996
 37.6209674999999990 45.6008463100000014 13.4240097699999996
 17.3321398799999997  1.2748863300000000 27.0145838500000011
 34.1107795899999999 49.8725225900000027  7.4871962500000002
 37.3073052299999972 23.8790392500000017 35.0127103900000023
  8.6235272999999992 35.6232825100000028 20.5092028100000014
 48.1716473800000031 20.8775344400000016 38.7213363700000031
 39.5004131500000000 33.4438952499999971 41.5475344000000035
 39.4106829500000018 25.3483232200000010 29.2684068999999987
 14.1148348899999991 28.0299462999999989 49.3074207599999994
  9.8206518999999997  5.6964196800000000 39.7254893699999982
 16.2999108700000015  2.6020634500000002 32.8803467700000027
 19.9881926300000003 41.5534853699999971 39.4285515400000008
 25.6656776300000011 13.0439305500000007 29.3407638000000013
 30.2171788600000006 10.1250192200000004 21.1980265400000008
 25.2321100399999985 26.0735189399999996 17.6328762700000006
  5.7515528500000004 16.3488264000000001 24.7253702100000012
  9.2971821099999996  7.7397665499999997 32.2564236699999967
 33.7126840800000025  9.0812677799999992 28.8675661099999985
 27.1836114199999983 24.9572075300000016  5.7869922400000000
 11.9785720799999993 23.8608999500000003 30.1454962100000010
  5.3548666200000001 49.2432955199999967 32.0677765599999987
 13.1205793499999999 17.5771879599999998 19.7980097099999988
 45.1492321899999993 23.1453967399999989  4.6829897899999997
  7.0094545899999998  7.9032439300000004 29.8207477300000008
 47.3071647299999967 41.5176671199999987 37.4312718300000000
  7.3857146100000000 31.7054785700000004 23.9783308099999992
  3.8059484700000001 16.5759302099999992 41.6589628600000026
 12.1888441299999997  7.9033319899999999 31.3007141599999983
 21.1029026100000010 26.4840942000000013 18.1712185599999998
  3.6703092499999999 36.8876132099999978 20.1152569700000008
 27.1239082700000012 21.5262739100000005 42.0855852700000028
 32.4316974600000023 29.5392900400000009 16.8476640099999990
  8.6890033500000001 36.0792811199999974 34.4777782399999992
 18.0188382599999990 42.6146257400000010 24.0148147200000004
 16.9910230300000009 18.1240438799999986 10.8054926400000006
  7.9148616900000004 25.0804430700000012 27.0066591799999998
  0.9208448900000000 26.6401233700000013 40.5535489499999997
 33.4972187799999972 37.7560352200000011 15.6838603200000009
 48.6403275500000021 47.9851457700000026 36.3450347599999972
  0.9992367800000000 44.1726042600000000  8.9598467100000008
 38.1437383100000034 31.8097278599999989 26.0961831699999998
 48.5504858199999987 38.0151583099999968 20.7656469799999996
  8.2287230099999995  0.1476316700000000 31.2455003500000004
 43.1244297399999965 42.2906178699999984 28.4145618199999994
 13.5405469299999996 25.9722242500000000 15.1729455499999997
 11.6958944900000006 22.8986596800000015  7.7732337899999999
 44.7403215799999998  0.5847592800000000 28.0492875899999987
 24.3764505800000002 45.0049571200000003 48.3143225999999970
 18.8199430300000010  6.7825490600000000 44.3021193100000019
 35.7192770699999969 33.8897899400000000 35.6995496400000007
  2.3307434100000002 22.8044266899999997 23.9994102500000004
  8.0880755099999995 36.2851480200000012 44.4827570799999990
 21.6982218499999995 32.0146967100000026 21.0076175700000007
 25.0285459099999983  4.7711100499999999 38.0465288600000022
 48.0105346499999968 13.0559048000000004 30.5919361199999997
  8.6703863000000005 23.1826034000000014 30.0153720799999988
 18.3585452700000005  2.0703526200000000 46.4165236799999974
 22.5134632400000001 33.7767119700000009 35.1980406300000013
 23.4687951000000012 40.0393079700000030 40.6490300999999974
 38.2488424800000004 48.2956202200000035  4.4890831499999999
 48.0204656700000001 29.9665340799999989 47.5383289800000028
 26.6952431200000007 16.9510952300000000 47.0574901900000029
 45.2376085499999974  8.4869740999999994 40.5737592600000028
 23.1718189199999998 48.7605732199999977 18.9540436099999994
 10.6109767500000007 38.6862425500000029 49.6786161100000001
 48.5009465600000027  5.4088212300000000  6.0584832700000000
 24.9283349500000000 20.5254885000000016 21.8852160799999993
 24.8267124300000006 12.5557938199999999 25.2267049300000004
 35.2297203999999979  5.9107832900000004 42.5347062299999976
 30.8075381600000000 32.2938321999999971 12.4377974400000006
 42.0615185199999999 27.9418463499999987 18.6115761800000001
  4.7609242199999997 16.8533103199999985  3.5864698499999998
 27.7987428600000008 13.4712557799999999 11.3959562600000002
 31.8367813899999987 30.7847580299999990 49.4282393499999984
 40.4187231499999982 17.4800036100000007 36.4206578100000016
 21.9957347399999996 32.3137133500000004 46.5803284599999969
 25.5805075299999984 31.5900360800000009 33.7364752900000013
  8.9402562000000003  8.8860356500000002 47.6012084199999990
 33.5098414599999970 49.9054267300000021 10.5070571200000007
 42.1090683199999987 27.1111947099999995  7.8495664300000003
 27.6630323300000001 32.5843303400000011 44.8399962399999978
 25.8167513500000005  2.1399958799999999 16.9107007899999999
 18.1481318599999994 15.6522261999999994 16.9657148699999993
 42.7698749500000019 33.2883679199999989 27.5996821600000004
 17.8580553100000010 40.3356308099999978 20.9469774599999994
  5.8501747000000002 23.8861802099999991  5.0308656200000001
  3.7584815699999998 18.7996755700000016 16.1472620999999990
 37.0340867399999993 31.8957943399999984 22.6154471400000006
 47.8200605099999976 11.7570402900000008  0.5760765900000000
 32.1191976900000000 27.3556225099999999 15.9475746399999991
 30.8869845599999984 17.5495176000000015  4.7422348100000002
  2.7404148099999999  8.1517862399999999  7.0713807600000003
 48.6964817599999975 41.7689713600000019 11.1016662099999994
 35.7040663900000013 28.2437859899999992 43.3111895500000017
 31.1628393000000017  3.8401868000000001 42.0195129700000010
 21.9544243399999992 38.0098866900000019 32.1656685000000024
  8.3904906700000002 18.9766583599999983 40.6970345599999987
 45.0598577900000024 21.0299534600000015  0.4277824900000000
 39.7402957500000014 15.1506697100000007 37.3058682200000007
 49.7272550400000029 15.9753899900000000 48.3794995299999968
 14.2486733500000007 27.4529107299999993  1.0705982100000000
 43.5441273499999966 46.1483165799999995 14.7568216600000000
 17.9016666600000001 23.3115045700000003 46.4572998399999975
  7.8384877700000004 41.4639246799999981 34.1821692299999995
 49.7183236500000021 15.8656275900000008  3.6029136099999999
  4.1689726100000000 17.9226189699999985 25.4570328100000012
  6.3503545700000004 30.4093227400000004 39.4872872999999984
 12.8377204400000000 13.5673595000000002 26.6110443399999994
  1.8222244000000001 26.1254895100000013 41.1022525200000004
  5.5581696599999999 16.1574591699999992  8.4163121000000007
  2.9574427999999999  5.7411400900000000 41.3414268000000007
 25.3602538399999986 29.7862484300000006 17.4772933200000011
 40.8688408000000010 32.6074050699999987 32.6569416000000032
 15.2174944100000005 10.4285974800000005 23.4378506999999985
 19.9567221199999985 12.6286675299999995  0.0151448200000000
  4.5389640199999999 36.3682272300000022 40.7950796100000019
 42.9030793200000033 22.0541653300000000 14.3567450599999997
 43.8142977899999977 36.9028875500000026 26.8311256000000000
  0.7279075200000000 33.9417220699999973  8.5228590999999998
 43.6929489899999979 47.3937122600000009 46.1219618499999982
 21.8128878300000011  9.2056901700000004 20.0346916999999998
 23.0634141399999990 26.8013755499999995  0.7187848700000000
 30.6172785000000012 34.5997933700000004 18.7271566500000013
 47.3217329499999977 36.3656294000000031 47.1333307900000023
 19.8905862300000003  1.0827036800000001 47.0007705299999969
 41.9502227799999972  7.3942003999999999 24.3261882199999988
  0.2454425400000000 25.1528407799999982 43.7949844099999979
 12.3030485600000006 27.3372195600000012  6.6490701899999998
  0.9226772200000000  7.4361037699999999 28.5961135000000013
 14.8795240199999999 30.1601408000000006  1.4863534599999999
 31.1426099500000007 13.8454881600000004  1.1194399100000001
 14.4265632700000008 17.2488418299999999  1.2845615600000000
 39.6261884999999978 47.3501454100000032 13.8938976699999994
 14.7382225200000008  5.3059128400000004 26.4770525200000009
 49.8216452500000031  2.3917871100000001 48.7659121399999975
  8.6853237599999993 24.2364851899999998 42.6065391599999970
 38.1036514400000002  8.0696864300000009 27.2198693700000014
 34.3445364100000035 28.6234094399999996 23.6425067200000001
  9.6104016600000008 22.0206530399999991  1.1156459299999999
  0.6612197300000000 13.1199453800000008  6.9219775300000004
 37.6763422000000006 26.2833297600000009 43.9232895600000006
 18.7276150000000001  5.0252282099999999  9.0104987199999993
 39.4519673599999976 19.2154384799999995  3.8744884800000001
 18.5278732599999998 47.9659626899999978 13.9350138900000005
  5.7784532000000004 18.4629170999999985  6.2477140499999999
  5.3300109000000004 31.4932269699999985  6.6656117400000001
 28.9364445199999984 34.8229770200000033 19.7748510000000017
  5.9208011300000001 10.9045620599999999 22.9745303199999995
 32.9310122799999974 21.5233863899999989 43.5550521300000000
 29.7612005099999983 46.4968908600000006 23.2446198899999992
 22.3265342300000000 42.0607792599999968 15.5170938300000003
 45.7960094999999967 43.5316734900000029 36.8363752400000024
  8.9587161599999998 19.1424877000000002 27.7907844799999992
 29.7146919599999997 14.8276954700000001  9.0778071699999998
 20.7051203199999989 40.9572466700000035 18.4447829200000015
  1.4665899300000000 48.9770198000000008  6.7717841200000004
 13.3756366399999997  4.3249880200000002 40.0736801500000013
 18.3423027000000012 29.0815057099999983 22.8665277499999995
 17.7318410600000007 19.0526363100000005 17.6583998499999986
 34.7262002000000010 43.2467461499999999 48.0625971699999965
 38.0705976599999971  2.5348217900000001  2.7498864799999998
 17.3420935699999994 18.5666598000000000 49.8512592900000016
  0.1148273000000000 29.9024390900000014 20.2937763300000000
 27.4987426900000003 21.3684703800000015 39.8816574599999996
 41.0168472200000025 20.1511760799999990 30.8163795500000006
 30.8911487399999984 37.5368246999999968 31.4127050700000012
  3.3341438999999999 36.9565116899999992 28.0919390900000003
 41.2202207099999995 38.2494694000000024  8.8322611599999998
 43.8132602900000023 19.4657368400000017 10.6391426199999994
 12.0700569899999994 11.4477966299999991  3.1179047899999999
  2.6258100099999999 31.9887863900000013 35.5327792400000035
 49.4206838500000032 13.4335340100000007 27.4060442900000005
 13.3864467299999994 36.0102371899999980 24.0565296800000006
 18.0943992999999992 12.5690426300000002 47.8994325500000002
 45.7628545099999968 36.2957474899999966 22.6281394400000018
 11.1394942300000004 21.4795644999999986  7.0404855099999999
 29.4399691899999993 47.5621472999999995 27.0097262399999991
  2.4688346999999999 43.7048389300000011 47.2279204299999975
  9.6586259800000001 32.5268885999999995 29.4166509699999992
  5.6527934499999999  6.4995631100000004 38.1572573199999994
  9.0237062500000000 11.4308873500000008 18.9236536899999983
 49.8476400999999996 39.2871114599999984 48.4823221799999970
 42.3888782000000006 29.8759138600000007 24.4842173900000013
  6.2416375899999998  3.2029358000000001 31.7419679799999983
 37.2557565299999993  7.4999622300000004  1.8652618900000000
 49.4565371200000001 16.0193566800000013 37.3276756799999987
 16.2451277800000007 31.8625908299999985 14.5640134600000000
 27.3743001899999996 29.8632456399999988 11.5694069600000002
 47.0227603800000011 11.5336843600000005 46.6330169200000029
 11.1154059499999995 16.6277438000000011 12.4900700300000000
 20.6070778799999985 43.1578528100000014  4.0321846499999996
 18.9274316499999991 13.3437565399999993 18.5160957800000006
  0.0218227000000000 16.7741863400000000 23.7497625300000017
 12.2588158200000006 33.9174473400000025  0.5373601600000000
 31.4121609900000003 44.1898140600000033 48.2048452100000020
 28.8334864099999990  4.4060813500000000  3.0092770199999999
 26.9189554199999996 26.8836752899999993 33.9305479000000005
 20.7185631199999989 16.8904397199999998 27.6204574700000016
 17.0287805900000002  2.7154123200000000 37.9348461000000015
 20.9583932200000014 47.7147910500000023 42.4931781599999994
 32.8452751900000024 30.5401047100000014 37.5399205100000017
 33.4439731800000004 42.8572772999999998  2.2595287100000001
 25.8989925599999999 34.3679842900000025 22.7120158100000005
 20.8497783000000005 22.2239442499999988 17.8310198100000008
 35.9499364300000011 10.5816250699999994 45.3725787999999994
 26.9319290199999983 44.9310186800000011  5.6308894000000000
 38.3581100700000022 34.7559061799999967 42.5151029600000001
  1.3353929899999999 43.9499176300000016 16.2656275900000011
 26.4028447300000018  2.6114400700000000 40.4732921299999973
 34.6209116400000028 23.6620028799999993 37.2824819000000005
  6.6732946799999997  8.0637109299999992 26.7895511199999987
  1.9857468599999999 24.4474061200000001 37.5546254400000024
 30.5897574799999994 22.0539350899999995 10.4869967800000001
  4.9549504000000004 27.8513282199999992 47.2733960500000023
 23.9673690700000002 19.5720421500000015 47.3123718499999981
 29.0336934500000012 19.2858463499999999 37.2195639099999980
 49.2106729599999966 33.7805211700000001 49.2193064399999969
 28.8833638300000004 42.6959277799999981 40.4581902999999983
 30.8043215100000012 28.2316212700000015 38.8586408899999967
 47.1773918900000027 10.4255587399999996 22.3657041399999983
  0.3895256700000000 46.7578855100000013  9.7817585600000001
  2.0161452899999999 35.3539653300000012 44.0952795500000008
  9.3634475800000008 21.4634176399999994 35.6603488000000013
 43.4823260800000000  7.4545023099999996 37.8202674400000021
 45.2348439900000017 12.0229937699999994 20.4562215000000016
  7.7147453400000003 11.7248634900000006  9.7806131700000005
 32.7656248300000001 41.8564695800000024 31.6842764300000006
 17.6339554700000001 23.8895549299999992 11.7497375999999996
 27.8398233099999999  3.9104212999999999 22.4508311200000001
 31.1186983400000017 11.9629919600000001 12.0058459499999994
 32.2529127500000001 24.7045990899999985 10.1968941599999994
 29.2000783300000002 15.7164547900000002 46.4556528700000015
 30.1577936499999986 12.0379305300000006 21.4983637300000012
 22.9992301999999995 48.0619863599999988 27.8047490999999987
 14.4181144000000003 25.2487632600000005  5.9640495800000002
 37.7813462599999994 41.0865527300000011 41.6917387599999998
 13.0533229199999994 37.1982404399999993 40.8271371100000025
 31.6934269300000011 21.4264159200000002 13.7723516299999993
 21.9137972099999985  5.1896916500000003 23.1475510000000000
 40.8897305799999984 33.7018519100000020 27.0250486999999993
  9.9935585899999992 11.7392427799999997  1.4534174500000001
 27.5870341000000003  5.2821266700000002 26.7029801999999989
 46.9881770699999990 30.2919359300000011 16.5672095800000001
 45.0914151899999993  1.4151718000000000 34.7924567199999970
  6.8201309600000002 25.9409899499999987 40.2180535199999980
 44.8255233900000007 32.5716295000000002 31.3769486399999984
  2.3758147200000002 30.3179246700000000  3.3600085000000002
 21.6628005600000009 36.6890054799999987 32.1151571999999987
  9.4469990900000003 25.7136351999999988 19.0668304800000001
  6.2198310200000000 36.6999331600000005 15.7765646099999994
  6.7213547699999996 15.8095860500000001 11.7126780600000000
  4.9801823900000004  1.9254944500000000 11.7852699500000000
 25.0321036100000001 14.5653538200000003 49.9017214599999974
 48.2326369299999982 45.9288131400000026 25.5624888400000003
 28.7498515499999989 48.7549436999999983 24.3387177200000018
 10.8287775699999997 49.2646301400000013 40.6387539500000017
 15.5376996199999997 42.1175450499999968 19.5796814800000014
 25.7066987800000000  2.4864079399999999 39.0583186400000031
  3.1613142700000001 32.2089526999999975 35.8679487100000003
 32.6139207599999992 42.1662395099999969 37.9874194499999973
  4.5586131500000002 16.6112697800000007 35.6111262900000014
 16.1994853799999987 14.7508335800000001 17.2600364400000004
 39.4324351500000034 40.9375972500000032 38.1970445600000019
 27.7278703799999988 22.3174204200000013 38.8850367100000014
 40.8120028199999965 27.3313388599999989  7.8122007199999999
 49.6575536200000016 44.5036993599999988 23.6750918299999995
  7.2684169499999998 10.2837592400000002 39.1415655799999982
  2.2926950100000001 33.3250993300000005 44.9444719800000030
 31.7405670800000017 13.7109072500000000 39.2181123299999967
 38.8139703499999982 46.3996586100000030 39.0623259099999984
 20.5115262499999993 37.2217081200000024 35.2483641800000029
 19.2566945999999994 47.2661518000000029  2.2133251399999998
 49.3556777200000028 20.8755159399999997  4.7963735400000003
 12.6501489700000000 11.0537764400000000 30.8206858299999986
  3.2666724199999999  2.9633468500000002  4.9705019699999999
 39.2266257799999991 31.8995663299999990 36.0113860499999987
 43.3653565999999984 41.5484167099999979  4.2396960999999997
  6.5724074899999998 12.4526359400000004 41.4522968400000025
 38.7530330100000029 22.2257159100000017 47.6072242899999978
 34.6187059199999965 36.5904482999999985 25.6644947600000002
 43.1633873600000015 47.0513225300000002 41.5777390299999965
 47.0599072699999965 35.8615521500000014 25.1069994299999983
 23.3394109100000016 15.4790873700000002  7.0214466900000003
  9.4545575100000008  2.7481304700000000 37.8288550899999976
 39.5675719199999989 12.1812618199999996 30.4673439700000017
 14.6501578000000006 25.2021331000000011 22.2509978699999991
 22.5211599500000013 13.1352475900000005 14.1062543599999994
 33.8169618200000031 11.6773112999999995 10.5709590099999993
 16.1080256400000010 27.5869521700000000  3.9050769999999999
 32.6291564100000002 48.2317368499999972 30.8012240000000013
 26.1717869100000016 19.2225807700000004 23.9149488599999991
 38.5455237400000001 34.6175240000000031 16.7259491599999990
 13.0275191800000005  3.5148580300000001 24.2189810299999984
 48.4141013300000012 45.8011286300000009 29.5689073499999999
 14.6258801100000007 17.1669367100000017 24.7052551600000001
 21.2234658100000004  2.7897932299999999 38.0548953699999970
 38.6265198199999986 45.9185836600000030  3.6355481699999999
  2.6581483200000000 25.4988259799999994  8.7681695600000005
 16.6258401300000003 30.4950898700000010 30.9753697999999993
  3.0401872999999999 46.4278684000000013 13.1841669600000007
 36.2941286699999992 45.4205493400000009 33.1727933299999975
 35.1374856799999975  5.7218668299999997 17.4158295199999991
  7.8467963300000001 31.1059182000000014 47.1671136799999999
 37.6795885299999966 30.8444717299999986  3.0364402400000001
 33.4510315599999970 11.4874259399999996 19.1677557900000011
  2.4714943300000001 38.4051469600000033 25.3049001199999992
 49.4563429099999965 12.7553693799999994 29.4931305700000017
 41.0455063400000029  1.8250721500000000 23.9876507200000013
 10.4456420600000008  9.9060533799999995 41.0392370300000024
 46.4567062200000009 47.8614322399999992  7.0915997800000001
 38.5174350099999998 12.5301476399999991 44.1913745599999999
 24.4321825600000011 31.6922223800000005  1.1815552400000000
  8.3988722899999999  9.8466092100000004 41.9609386699999973
 37.4961750800000004 48.2144963900000008 41.0408590899999979
 23.7186895799999995 40.0157607299999967 44.8906678399999990
 27.4544705499999999 27.2865873199999989  5.6730705099999996
 47.2960732900000025  5.1037256400000004 28.3168262000000013
 20.8979477699999983 31.8082335100000009  0.9805815800000000
 30.6345555800000007 24.9757022199999987 16.6272914299999997
  4.8871436199999998 38.2227862000000016 10.3676064500000003
 48.3615276199999968 12.1946475999999997  5.4421981099999996
 17.0236742200000002 16.8926209800000002 14.2807363600000006
 16.3360008100000016  9.1656382900000004 46.8828019199999986
  9.2518793000000006 46.3353890899999996  8.8844500499999999
 20.9520297699999993 40.7643245699999994 26.0030865300000009
 33.8753511800000027 43.0273180100000019 10.1337882500000003
 18.5791253000000012  9.3588598600000008 44.3576363800000024
 18.7946729200000000 32.0677945099999988 13.4222858899999995
 38.3589208799999994 48.3831803300000018 26.1118178400000005
 11.3223989799999991 45.5596227400000018 20.5794096599999996
 28.1380792000000000 16.6971927399999984 29.7183032500000017
 25.5227543499999996 10.9324150499999995 41.0998072399999970
 14.4603394000000005 34.9243617799999981 23.7484015399999997
 39.3846863799999980 38.4240412999999990 42.8621807299999986
 34.6715883299999987 25.3850295099999990 46.1909641000000022
 31.5336763299999987 36.4980903200000029 23.4039383600000015
 49.9919891600000028 15.3617956699999993 35.6999048899999991
  8.3014805099999993 22.9830011100000000 25.2997128400000015
 12.2737199100000005 34.4105697600000013 38.4460067799999976
 12.0359318900000005 37.9071955499999973  6.2356303200000003
  2.2388591700000000 28.5060270600000010  0.7967795000000000
 41.4730837800000032 38.1190262000000004 16.4733115900000016
 16.9478816999999999 43.0477159300000025  2.9616325600000000
 26.1585061799999998 46.0133555299999983 46.4664375400000011
 11.4157230599999995 14.0575474400000004 15.1998684799999992
 14.1895640899999993 34.0037284599999978  0.6641890400000000
 13.0251802800000007 14.2049618399999993 42.7935849400000023
 31.7820462299999988 10.8510101300000006 22.9271953800000006
 37.3727506899999966 23.8208453999999996  6.9486048100000000
 35.2010499599999989 24.0467064400000012  2.9951831800000002
 40.0437154999999976 14.7263977700000002  6.5673963700000000
 28.2307284299999992 23.8527517899999992 43.1992955899999984
  0.5610480900000000 29.5352607200000001 49.1268734399999971
 25.3619793499999986  8.7868597200000007 30.7512578199999993
 36.3902344999999983 10.6712474099999994  1.6551723899999999
 18.4824331499999985 34.2539802599999987  6.6462062599999996
  2.7885496900000000 17.1545762599999989 16.9632834899999985
  1.9056618200000000 28.4582465999999989 47.7506391200000024
 44.9917368099999990 26.1205687799999993  8.3994432900000007
 19.4433031900000017 33.5967598200000026 10.7422506299999991
 45.0062609300000034 20.2273738899999991 11.4729650799999998
 26.1241629400000015 18.8064917800000018 30.7073074099999985
 47.7155899600000026  5.9204885799999998  5.6515030099999999
 34.8111286199999981 20.6387549700000008 25.5548393699999998
  0.1853010900000000 14.3553370900000008 20.1504876899999985
 19.2466578800000008 28.5789366899999990 26.1890237799999994
  8.9226826399999997 13.5270774899999999 49.5913628699999975
 32.0357892099999972 25.5092742699999988 34.3727211400000030
  2.3241918300000002 12.6921070300000007 16.2429087900000013
 44.5679847099999975  4.1190642400000002 29.1127103100000006
 47.3220974199999986 42.4913286199999973  1.7601104500000000
 32.1762682800000022 36.5409601599999974 43.9174930300000028
 21.3053617700000011 29.2153114800000004 21.7400810500000006
 35.5422908600000014  9.2824936699999991 10.8710357299999991
  9.4974661499999993 23.9136217000000002 16.2399800300000017
 45.3444265700000031  3.7774272000000000 37.2190307500000017
 40.2498714800000030 29.5899866500000002 18.9056592399999985
 47.4148180800000034  0.8474527200000000 43.1378039499999986
 17.0709867300000013 12.0740428899999994 28.4387782599999994
 20.5461844400000011 19.7219367199999986 16.5905049399999989
 36.6164943100000002 13.4199370899999995 48.8827143299999989
 21.7797862000000002  2.8666660899999998 30.0569771000000010
 17.6141157600000007 40.4435707700000009 35.0938933400000010
 23.0653089300000005  8.6472633800000001 34.5556288200000026
 26.4535562000000013  4.9190964800000003 25.2545486299999986
  3.1988612600000002 13.2612369599999997 31.6095038200000005
 10.9307556899999998 13.2109317100000005 36.1291806400000013
 23.1389858900000007 46.9357989200000034 49.9725299899999982
 38.3115204699999978  1.7245312200000000 34.1962639199999998
 36.6076510299999995 14.7909237600000001 41.0556450899999987
 22.2270447599999983 19.9413342500000006  4.0047300799999999
  7.4983962599999998 25.5459646999999990  1.0287904699999999
 40.8813469999999981 42.7990303099999991 23.3024343999999992
 44.0148880899999995  8.2241457699999998 23.2179437200000010
 23.9800576899999989 32.8296475499999971 17.8863697299999984
 16.2160570300000018 43.2705756499999978 48.5649131500000024
 30.4952525700000017 33.7099032200000011 12.3433645199999997
  4.9274433399999999 15.5402610200000009 35.1668804800000032
 49.7602523799999972 20.5616986699999984 30.4695594700000001
  1.8860661400000001 49.1136712500000030  3.4726712900000001
 15.1863187400000008 36.4590453400000030 17.1750068300000009
 10.3397562900000004 30.2839915399999988 33.0458281499999984
  1.2336881099999999 34.5961295500000006  7.1492833100000004
  8.0046225100000008 33.6905988800000031 37.8953570899999974
  7.2666272799999998 30.2046742700000017 49.9603949500000013
 34.3579028400000013  3.2730779399999999 10.6209257899999994
  5.8997523300000001  7.1374101100000003  8.4517723199999999
 48.9374184999999997 41.1926892299999992 25.5279091300000012
 47.5687574800000021 38.1069944699999965 14.2559739800000003
  0.1547279800000000  0.5131067700000000 23.7855010799999995
 12.9166124199999999 39.5049696499999996 10.0249184600000003
 38.8045152799999968 37.4883613499999981 16.8891941699999997
  6.6864849800000004 29.7530552499999992  9.5996050400000001
 40.5619772599999990 25.1517631500000007 25.6832006700000015
  7.5537276499999999  5.5005958100000001 48.5137729400000026
 20.9818579800000009 42.0871033100000034  7.9452699300000003
 36.1517473500000008  2.4177537099999999 35.1865671999999989
 30.6348829199999990 30.4772485000000017 31.1154666700000000
  7.6483806200000002 46.3330217899999965 19.0971453300000000
 15.7215569500000001 32.2076155700000015 13.3949207000000001
 28.4321570699999988  9.2638225799999994 47.0661078600000025
 40.0747459800000030 36.2556879799999976 49.3478971999999985
 40.1082338499999977 49.0862940399999985 43.3439871499999967
 32.3920268899999968 12.7960227300000007 12.7539502099999993
  5.6410963000000001  9.9054718200000007 31.2648844600000011
 18.9130942200000014 22.3745428599999983 48.9418405799999974
 15.5146309500000008  4.4023424899999997 40.1701842900000017
 40.2872857099999990  8.4109730400000000 13.2238147399999999
  2.6542952099999999 10.7395335400000000 49.3401789300000004
 10.3873373299999994 29.9784892800000016 48.4694027999999975
 25.2529155100000011 25.7510016300000011 47.0844400599999986
 48.1840336200000010 29.0530869600000017 45.2326034900000025
 24.3668093900000002 32.9654600599999981  0.4872700400000000
 39.5476204100000004 26.8561663899999985 21.5885665399999986
 39.0377843899999988  8.0423003600000005 16.9420928999999987
 45.7553804400000033 10.6789990100000001 31.9364369500000009
  5.6958689600000003 30.4696337700000015  3.1347633600000000
 35.9677694900000020 10.3018274999999999 42.8148671300000032
 39.4717744499999981  2.1131854699999999 16.3082733100000006
 43.1495678799999993 14.7873793800000009 31.4852354699999992
 22.3525930499999994 30.0314467500000006 38.5255947400000025
 49.6708335399999967 17.6992284399999988 20.9324739000000015
 12.0889037899999998 28.2060049399999997  8.3249807899999997
 17.9520740299999986 20.5081505300000018 30.4860094500000010
 28.3607779200000003  9.5945061500000008  4.8647991399999997
 12.6791531000000006 48.5262294999999995 30.3391922600000008
 10.8043800399999999 39.2153176200000004 41.8432326000000003
  9.2103385899999992 48.1606402000000031 35.8797744800000018
 31.3696552400000002 29.7956975100000001 26.2880217400000014
 22.7813948999999987 36.9040561300000007 46.4713992499999975
 44.8072528000000005 25.4977705099999987 41.0289209999999969
 23.0752348299999994 25.4718026000000002  4.5863521100000000
 32.8198688700000005  3.5361371500000001 31.8570552099999986
 21.5268749399999990  2.1870800799999999  8.2548538499999999
 39.3286471700000035 46.5729376099999968  1.3623312400000001
 46.7010747899999998  4.9639262700000000 28.7089001999999986
 10.4856390600000005 32.1356055500000011  3.1224391900000001
 28.8354719899999985 37.7777198699999985 30.1379194900000016
 28.0127950400000003 11.0461968699999993  3.4308733899999999
 12.6890660999999998 15.1339782899999999  6.7731839899999997
 36.9032679099999967 33.2237040099999987 40.7932628599999987
 12.3688909700000007 33.9506141800000023  7.9724672500000002
 43.2571050399999990 22.1644858499999984 18.5136258699999985
  8.5099775199999996 27.1920961699999992 17.5603078500000009
 36.0940806500000022 33.2134894499999973 19.1171573300000013