Na Cl 
 1.0000000000000000
    50.0000000000000000    0.0000000000000000    0.0000000000000000
     0.0000000000000000   50.0000000000000000    0.0000000000000000
     0.0000000000000000    0.0000000000000000   50.0000000000000000
 7900 7900
Cartesian
  5.0802744700000000 34.1730439299999986 46.3492697800000002
 42.1771694400000001 21.6867847500000011 39.7912413299999983
 21.3930332700000001  2.7101137000000000 48.8809382099999965
 41.9284485700000005 41.4351304300000010  0.2370608000000000
 34.2809333399999971  9.6466332700000006 30.9654007299999989
 35.4901436399999994 32.8441842399999970 12.2044868100000006
 20.8098586999999995  1.2951346600000000 17.3282070399999988
 35.1757194799999979 48.3172631099999990 18.2411169999999991
 28.4533367199999994 15.2301842900000004 23.7073340799999990
 49.1638765699999993 47.2734556300000008 24.9687530200000012
 49.8320350700000034 27.0133467100000004 13.3180730599999997
 36.8538732299999978  3.0474545900000001 18.5693176099999988
 44.5210444699999996 15.1944332400000004 22.8393994599999992
 11.7867426099999992 49.7829963900000010  2.8203565899999998
  1.7331632600000000 29.2748448299999993 22.3171291300000014
 33.9892514200000022  7.3486298600000000  8.4220397600000005
 49.2221760099999983 27.1121904399999991 24.5846918199999998
 44.9154188600000026 43.4447799799999999 26.4170881500000014
 42.0005097900000024  2.5681212300000000 12.4135522199999997
 34.5722113899999997  5.1568266300000003 20.7851051399999989
 35.2621715200000025  1.3167608300000000 30.7992742300000018
 43.4019961799999976  7.3498465199999998 28.8703860399999996
 24.5781470700000000 34.9177555099999992 12.7168748100000002
 32.5149675099999982 29.0588586999999983 42.2381025500000007
 45.7895074999999991 34.2524708400000009 31.2774216199999984
 29.6251730199999983 10.2829471699999999 25.4931602300000009
 13.5439521500000009 33.2037234100000020  4.9794106800000000
 38.9552440000000004 20.7858696899999984 48.1118958899999996
 16.6342236899999989 21.3975201499999983 28.1210947000000004
 31.2385916899999998 27.0104588099999994 14.7812788200000007
 28.9531457600000017 15.5207976500000004  8.0461679499999992
 31.9447854199999988 46.0085823200000021 16.2430220799999994
 46.4721403499999965  7.2629194699999999 17.8876003600000004
 36.8991943899999981 14.7601910000000007 24.5301440699999986
 28.1313932599999994  4.3265742300000003 16.7330330799999984
 32.0869441800000033 35.2707647599999987 45.7434051899999972
  9.4109999999999996 20.6769849999999984 18.0868420599999986
 35.5545046000000013 14.5587677000000006 39.2086852099999987
 30.3722552400000012 16.4938154700000013 11.5566163399999997
 32.0507887899999986 27.6071937200000015 44.1048265200000031
 19.8192788100000001  2.6190394299999999 18.1957252599999997
 15.5545140499999999 24.7175647299999994 28.1104066300000000
  1.6042425800000000 12.5049922000000002 21.4038634300000012
 34.7326793900000013  2.1424567099999998  8.2699317800000003
 42.7433532399999976 37.5378980699999971 49.4528775300000021
  4.5127033000000001 45.0044373500000034 39.5785292300000009
 46.3408176299999965  0.1219149700000000 49.0248663599999972
 10.9288776100000007 31.6460105300000016 24.4989310300000014
  3.5337749899999999 42.1562318699999992 19.7889611000000016
 43.0691813299999993 13.7306457700000006 20.9634264600000009
 32.3084510999999992  8.1376600099999994 19.6518168600000003
 38.0860388899999975 12.0556611599999997 19.4971562499999997
 38.7050164300000006 15.2112149900000002  4.8903993400000001
 42.9416295099999985 19.9671882099999998 38.5321864100000013
 10.4570035899999993  0.8592890300000000 42.0708057000000011
 34.0313461799999999 14.8351928999999991 35.0870480700000016
  8.0168981800000001 40.0077800199999984 10.7588296099999994
 23.6492683100000001 23.2524138499999999  3.3196070700000000
 42.6360466900000006 34.0368009800000024  6.5140650400000002
 31.8911359300000008 44.3216230199999970 13.5181445000000000
 49.4545995000000005 33.4538341900000020  8.5912119600000008
 42.4994742499999987 38.6636573500000011 20.0891414300000015
 38.1999890000000022 27.2151771599999996  5.4825178799999996
 44.6780742400000008  4.3936745699999999 44.4885816199999979
 19.5912311899999985 19.8225702499999983  7.9381652699999998
 16.7436576099999996 10.6533852000000007  1.4450392500000000
 36.7746070700000018 20.8209654200000003 37.9657810499999968
 40.8821037700000005  5.5180543100000001 41.9388352599999976
 16.0042533499999990 33.4860411599999992 49.8938241000000033
 15.5017187900000000 37.3876885199999975 24.8809882800000004
 24.7700023999999992  9.4304138799999997 46.9661457899999988
 10.0123187999999992 27.0421377300000003 47.2087882200000024
 38.1036359499999975  7.8094596500000000  3.5884136099999999
 10.4675734200000008 28.5065229900000006  9.1318627600000006
 29.2174562500000015  7.7871639100000003 28.8638100599999987
 14.0557256600000002 34.5811553500000031  5.4779009900000002
 17.0819709400000015 46.6855715200000034 44.4006145199999978
 41.1282497600000028 42.4937998099999987 43.2934781499999985
 33.4872758400000023 20.6450508799999994 31.3700909900000013
 37.1192225400000027 12.7732767099999993 30.4616389000000005
 18.7650034999999988 33.4138076899999987 35.8658593099999976
 47.4973932099999985 38.6877305300000032 24.6869964400000015
 14.3491792300000007 16.6553632399999998 26.6900314600000002
 29.3587617899999991 32.7094812799999985 48.2518678499999965
 19.1429934599999996 36.2910041299999975 42.9063942499999982
 27.7681314999999991 48.9860892299999975  9.2016736800000007
  2.5295176100000001 13.6024534799999994 16.4355806199999996
 32.8033989400000010 26.7260654500000001 34.9819983800000003
 42.4466910299999967  1.5360927900000001 17.1115465799999988
 43.7633275700000013 30.2465090699999983  3.0778873500000001
 30.0526802300000000 45.3966847399999978 32.0803691099999995
 24.7636047800000014  1.9054918999999999 25.6024044599999989
 49.6117456799999985 24.6096678400000002 14.6874299100000005
  1.6345115900000000 21.2362120700000006 17.0163031499999988
 43.0070653800000002 19.7477711499999984  0.7896450800000000
 21.5648890299999998 41.0899953400000015 49.5516953799999982
 15.3441759399999995 39.5649622099999974 18.3199405800000008
  3.2412532299999999 25.7429801699999992 12.2677945099999999
 34.8223688499999966  9.5532214300000007 10.9925967500000006
  2.5735092399999999  2.9697316900000001 12.2805901199999994
 49.8780825899999982  0.9340452000000000 48.4977346399999973
  1.4260479500000001 17.5878763700000000 49.4382286000000022
  8.3080399099999998 33.2268037799999973 42.8910551100000035
 19.9632235899999984 21.8988698500000005  4.3056420800000001
 14.9263866299999997 17.7801160500000002 30.4103808399999984
  7.2707548500000003 49.5768287400000034 37.7607171599999987
 44.3733074000000016 32.1774342000000004  6.1366235199999997
 38.2314458900000034  5.9110737000000002 47.4156214100000000
 14.3491136400000006 15.5530191299999991 49.5925714999999983
  2.3491306199999999 31.8383998599999991  7.9864783499999996
 28.7415991400000017 10.0568103200000003 24.8110233499999993
 48.8693694099999973 47.4916959600000013 42.9340592300000026
 42.7335118399999985 22.1334535499999987 46.9538128200000031
  2.7321029200000000 18.4538341899999985  3.5912511000000000
  8.1571631900000003 47.4416839599999989  2.3823920900000002
 40.8638251900000000 48.3099730899999997 45.7177409600000004
 28.0723978199999991 12.7901565999999995 14.1620460999999995
 21.5087415799999988 47.4196521100000012 32.0929920000000024
 36.9165181600000025  5.9206933700000004  9.0935402100000005
 35.1303539900000033 35.8594563500000021 39.8828592999999998
 11.2163149600000001 12.6054841900000003 10.3726988200000001
 33.9491365599999995 33.1382236399999996  4.1246585600000003
 23.1363626800000013  2.8475129799999999  8.1505830899999996
 36.8499991899999984 37.9363668599999997 46.5177499400000016
 23.8233089999999983 48.3544027000000014 42.4461107899999988
 41.7840453800000020 14.4506307899999999 21.7516064500000006
 29.2496258500000010 48.4617099199999970 45.9585561199999972
 25.4526506800000014 32.6999153399999969 37.4771120699999969
 27.8225048299999997 12.8387482199999994 30.8413304100000012
  0.2401445300000000 36.1091071700000015 35.7641643500000015
 38.3103067899999985 31.3262737000000016  0.6821369800000000
 14.6761480100000004 12.0195850800000006 13.1664158800000006
 37.9517585400000002  5.2058636199999997 44.9499203299999976
 23.3110440099999998 38.7166293300000035 10.3891247700000005
 10.0200076899999999  6.2691903499999997 16.2821611500000003
  4.2823897899999999 24.1252466699999992 23.0207540000000002
  9.8124262699999996 17.4483025299999994  3.6206132300000000
  1.6465289299999999 23.2117148700000016 19.2918032500000010
 37.3372187100000019 26.6348261999999991  1.5239027999999999
 12.2344173800000000 23.8528734000000000 45.2431519300000033
  1.6544216800000000  5.8651519499999996 25.6088252499999989
  7.5260295299999997 39.9783692999999971 16.4527822400000012
 21.9110446600000017  8.9276316399999995 46.7049473399999968
 20.0499696299999997 29.8395457999999998 13.2463435000000000
 31.2952139299999992 28.6605681399999987 48.1687729699999991
 22.5673135900000013 38.8395756399999996 26.7478337599999989
  0.8420647800000000  2.5827984300000000  9.0932762300000007
 30.6935852500000017 17.0873579900000010 37.2257069400000020
  2.4565275500000001 36.8585952299999988 32.4099694299999967
 14.3562045699999992 34.7302309900000026 10.9921897800000004
 45.7336538200000007 45.5197839699999989  1.0092577700000001
 12.5952880900000004 39.0069088400000012 39.1168431999999981
 36.7837073000000032 23.7685693100000002 28.3443476899999993
 33.4516324299999965 21.5861815099999994 48.9526863199999980
 47.7989886900000016  7.6028743800000003 31.5096949100000003
 33.4424213699999981 16.7759017399999983  2.5805416100000000
 21.1627776099999991 32.8033494000000019 25.8933397599999999
 39.3613399400000006 46.0404094800000010  1.1620561400000000
 30.6774859199999987 46.5059022599999992 24.6993438500000018
 21.8720125600000017  2.9150992200000001 44.0725566300000011
 27.4593241900000002  8.8616167499999996 37.1926655500000010
 47.1298443399999982 11.2937769400000008 14.5090969800000007
  4.3929640900000004 32.5474987200000001 25.8109717500000002
  5.0022311799999999 22.4993830700000004 47.1311759900000027
 33.6748451200000005 23.1218499900000012  8.9328452299999999
 34.3297602100000034 30.2797993299999995 12.5873736199999993
  5.9883716299999996 46.5620043199999998 17.6066160700000012
 14.3963719799999996  9.8238429800000002  9.3289629400000003
 41.8800768600000026 28.4518489999999993 40.2261084599999990
 30.2048848800000016  3.5002617599999999 28.8994800000000005
 13.5603067500000005  8.0755947700000004 26.5212338500000016
 42.3773863099999986 36.7316861299999999 49.4488580399999975
 36.9570491300000015 37.1247431700000021  5.5584061499999997
 20.1320808000000007  9.8820206099999996 37.1203195499999978
 31.2106374100000004  7.1829465700000004 23.7830305600000003
 21.3945929499999998 28.9237548999999987 21.5485449299999985
 16.3946086199999996 44.1869948300000033  0.8220491200000000
 16.1796206500000004 30.8841820700000014 20.4480794800000005
 20.8718527899999984 43.2298484499999986 14.0628313499999997
  4.0064631000000004 36.6254034199999978 13.1552077199999999
 49.5761376100000035 26.1448199099999989 15.9881453100000002
 12.7582323300000002 27.6108227299999989  5.0976787500000000
 26.6867255499999985 23.7962358700000003 43.3363376900000006
  3.8274764299999999 28.3964161200000014  8.5657201700000005
 14.0589765999999994 39.2197783800000011 16.8151542899999988
 12.2980772300000005 43.7840752999999978 28.9535219700000006
 21.8437213800000016 27.4252088200000017 35.4845867900000016
 39.4501632699999973 38.8941273699999996 43.5987748200000027
 14.6083591599999991 22.6923582699999997 40.4654697900000002
  3.1508216000000000  5.8585481300000000 14.6183869600000005
 41.2296984099999975 47.5411282099999966 23.7418966500000010
 30.0569602399999987 17.3308011899999990 28.7756399899999984
 32.1812298799999965 19.9305333100000013 22.4732690599999998
  8.2330837399999997 23.4384492400000006 30.0163458500000004
 34.7246573500000011 17.3160282000000016 30.4860318200000009
 28.7368349599999995 29.9852264300000009 11.7005306099999995
  0.8179920300000000 47.9919871499999999  1.3280953300000000
 21.2981891499999989  8.6649631399999993 32.0355330499999980
 21.2039885400000010 25.4354635800000004 43.8364523400000010
  9.2545359400000002 40.9856083499999997 45.1195856300000031
 24.8756846500000002 35.6319610400000002 16.3692467000000015
 17.9292715700000009 37.2672832700000001  1.2299937000000001
 22.5040637500000003 25.7994918700000007 12.0599237800000001
 41.1389578100000008 22.4639001600000014  0.7700561100000000
 42.3330133999999987 40.9561767699999990  0.4629169100000000
 30.2445522000000011 20.1887444900000013 12.2286768000000006
 27.3709584399999990 23.6984805999999999  0.3634657500000000
  8.7688260499999995 27.6594555100000008 22.4688140999999995
 33.3586003599999970  7.9961729699999999 41.6791720699999999
  1.8450523000000001  9.7940678499999994  8.8983903000000009
  5.2457417900000003 15.1821830599999998 16.9507120299999983
 40.6171709300000003  2.7917455400000000 20.8673398100000007
 17.3801994499999992  9.0121524500000003 17.2461438300000012
  5.9393607099999999 22.8354658099999988 45.6738796100000002
 40.8945464000000030 14.6413801499999998 27.6762465099999986
  4.6751674100000002 25.5385819000000005 26.9460103599999989
 31.5961205800000009 35.9985552699999971 27.7183606699999991
 12.4876987199999991 30.7524663800000013  6.7024019600000004
 47.2697047699999970 11.9281312699999997 26.1023206799999983
  1.7035979299999999 32.3704428699999980  0.0332419500000000
  8.6975004600000005 28.8901715400000008  7.1131418499999999
  0.5750599100000000 15.0318856899999993 40.9027695400000013
  2.8476262200000000 10.0539560899999998 26.8400756099999995
  1.1507246900000001 40.2298337300000028 42.8154476400000021
 49.2285176899999968 33.6967741500000031 41.6831877500000019
 19.3365302499999991 39.0638992599999995 46.9548713900000010
 20.5233968400000002 36.7307306399999973 33.3899309500000001
 34.5695581700000005 10.5641311800000004  1.3527124200000000
 35.0376347699999968 27.5275940000000006  6.2723090399999997
 18.6980953099999994  8.8878104300000000 27.4298495699999982
 13.4817915100000008 38.4699086600000015 13.7548569700000005
 27.8810173200000015 46.2580469700000023  8.9953447000000004
 34.7584325500000020 34.9758954200000005 39.8742955100000032
 17.2846884500000009  3.7588584699999998 25.1343388499999989
 32.8329851800000014 23.9818713999999993 13.3125731799999993
 44.4174085499999975 23.3854744699999983 39.6694042900000028
 23.6779097999999983  4.6300818499999998 17.7855970200000009
 22.5290949299999994 46.4985363600000028  0.9006609400000000
 37.4084957399999993 24.5878198499999989 47.4882717200000002
 35.3828528800000015 29.6084010599999985 28.3966923700000002
 13.2087137400000003 48.8517925399999982  2.0771705800000002
 11.0059178699999993 26.4616720000000001 41.3213644400000035
 38.1720912099999978  8.3370035100000006 20.0179713899999996
 42.0451036899999977  2.0576341299999998 32.6568566899999979
 13.7903559799999993 24.5129295700000007 38.8073484399999984
 35.1051658800000013 12.5229254200000000 22.8075178899999997
 25.9531973100000002 45.3871062899999984 21.0954753100000012
  1.6535045100000001 40.4503350600000005 48.7812984700000030
 17.2834341999999985 32.6785328699999980 28.1019752300000007
  9.8976528600000009 49.8515355899999975  4.7586035000000004
 27.8490338400000006  8.7117007500000003 17.5545194699999989
 38.8087888900000024  9.3148652300000006  4.9398780799999997
 24.5309299000000003 41.3387827099999967 30.9209552300000006
 38.4945033099999989 27.1170715899999983  6.6222596700000000
  0.3182931600000000 49.5530927599999984 38.8299361300000001
 14.7365116399999998 26.5510495400000011 43.4896357100000017
 30.3073684800000009 25.9420871599999998  8.6589360899999992
 30.7388357300000017 27.6120515399999995 25.7502932700000002
 35.1789671399999975  2.9007102400000000  2.2369638799999998
 46.6519215399999965 28.8452580000000012  2.2512177699999998
 36.2170845699999973  0.5403203200000000 31.1636077399999998
 16.7552613500000014  5.6775068199999996 21.8571105800000005
  2.4575867699999998  4.6608460599999999 34.8397692799999987
  2.0023355000000000  3.2528106600000002 19.9887693700000000
  1.2468350100000001  5.5560562600000001 30.6374822900000012
 24.1648243399999991 38.2026606399999977 22.1174055100000011
 27.2344316699999993 29.0931038000000015 17.7955589799999991
 39.9597864599999966  4.1309513400000002 28.8991776199999997
  8.4782538699999996 44.0128640000000004 24.2052665100000013
 17.9142218200000016 34.3260725399999984 18.3012158900000017
 38.5355102500000015 16.3208447200000002  4.4372761399999998
 27.3001016199999995 32.8080025699999993  4.0991172200000001
 43.8631393499999973  7.7829755599999997  8.4703143999999995
 10.5740507600000004 18.0712043400000013 22.7313287200000005
 45.4417909200000025 40.1800621499999977  6.3045349499999999
 10.3188493599999997 28.9011429900000003 41.5102279700000025
 12.4015010500000002 32.0281228699999971 46.6610179299999999
 31.7282943400000015  7.4430322300000000 45.0427051100000000
 32.7448591500000035 42.8477501500000031 42.1367094800000004
 41.6762562700000032  2.8390672299999999 16.2029412000000015
 22.8326677700000005 48.6471833200000034 13.2100411500000003
 21.1616407500000001 13.6960514900000003 39.5373670299999986
  4.5277329899999996 47.6083315699999972  3.2286380700000001
 13.7199845200000006 41.7798762199999985 44.3795815300000029
 37.6268030600000003 43.6789492799999977 12.1005728900000005
 24.3285574800000006 40.0656180200000023 32.8420237999999998
 25.8940466299999983  1.2417684800000000 20.4028108000000010
 10.0411482000000003 11.5777457199999994 37.1722939400000030
  4.7441898900000004 35.5994261499999993 19.5553053299999995
 16.0166166099999998 41.2753623600000026 15.0152463500000000
 11.2454646999999994  2.5252429099999998 41.7575576300000009
 19.2710945699999989 39.2864468699999989 37.3125279699999979
 11.6576402699999999 29.9600771100000003 39.0159362400000020
 40.8404029399999970  4.6522083500000004 39.6657066599999979
 11.5318420600000007 15.6695522199999999  8.1641751399999993
 15.2915435899999999  4.9731412900000000 33.5857041100000018
 24.9289829900000015 31.4170552799999996 26.4480855199999993
 12.9733451500000001 43.0118850899999998  0.7526495700000000
 49.7813738899999976 25.5509381799999993 34.6179360200000019
 23.6507206799999992 47.6624682500000034 13.1039361999999997
 37.8557068900000004 40.8657636200000027 30.8891917300000003
  4.6453339299999996 24.1273651899999990  8.6268209400000000
 40.9795835999999980 43.8616288300000008 32.3957989600000005
 26.1931355900000007 28.0299145199999984 48.7732710499999982
 32.3666111300000026 35.6331798599999985 36.8539856000000015
  4.9359574899999998  8.6375965499999996 22.0852901300000006
 37.4712663600000013 29.5737870200000010 46.6384035800000021
  1.6488889499999999 12.8765369100000004 15.9558916300000000
 20.6706353599999986 11.3684274300000006 19.1598314199999997
 19.2866467700000008  0.6723100300000000 49.5147122500000023
 43.7688422100000025 22.9310696599999986  2.4877516100000001
 11.6413071299999995  5.4490013800000003 31.3661464599999995
 20.8236138199999985 32.4774735800000016 48.8983892099999977
 35.2275063399999979 18.6991366899999996 26.3903113199999986
 41.9623635399999984 11.4440823700000003 40.6924356700000018
 17.7662436700000015 47.2573621399999979  4.4855182300000003
 38.1049131700000032 29.2756252600000018 35.4337326899999994
 34.7452899600000009 14.0883626199999998 33.1106368599999996
 40.4737169300000019 41.7605170000000001 19.0092364899999993
 38.2376543199999972 10.2561418500000006 24.9760401799999983
 22.3072789200000017 18.4368885200000001 18.7853692400000014
 25.7008498900000006  4.1840795000000002 21.8241252099999983
 48.0724157800000000  3.0919414000000001 16.2591569000000007
 17.6499654200000009 42.9687390799999989 25.5976666100000010
 19.9827429700000003 49.9610946000000027 46.1170226600000035
 38.7997630500000028  7.6175238299999997 27.7229673100000014
 39.9116219000000001 44.6292302800000016 33.4732807600000015
 35.4297838800000022 18.3776786399999992 23.6449085799999992
 49.9784229799999977 37.3550060800000026 25.5872618100000011
 45.1091742799999977 49.8921554799999996 37.4570985000000007
 41.4545457099999979 26.5497007099999998 20.8197745099999985
 17.9502329899999999 39.5658170299999981 32.6868066299999995
 17.1589476400000009 40.4329335999999984  6.3149663900000004
 35.6400863699999988  2.9315639099999999 20.7945816800000003
 44.5342644099999987 37.3819259599999967 28.0296686900000012
 44.6417307199999982 43.5682503499999996  1.5835931100000000
 15.4493432100000003  7.1113276100000000 20.0831339600000014
 37.2323905100000019 14.7872315800000003 29.0011458699999984
 22.2586364100000011  0.9021820500000000 12.9737222400000007
 49.3496789100000015 20.0534879100000012 38.9712874299999967
 40.4277697899999993 19.5267924000000015 36.7998091700000032
 44.3926787400000009  7.7516561599999996 32.0851533800000013
  5.1728965000000002 40.8715430100000034 28.0234345599999983
 39.8646469899999971  5.1219260799999997 34.2116426600000025
 45.0781916500000008 29.1670247099999997 10.1843293799999994
 18.0238958300000007 27.6172135899999986 12.5087270600000000
 34.1756493899999967 40.1393710600000020 22.4093880799999994
 34.5855304000000032 29.0093794100000011 10.6398018400000005
 23.1494566299999995 22.9175815000000007 25.7922701900000000
 40.6850674399999974 43.9284289200000018  5.1049046000000002
 48.1316278899999972 48.2699686400000019 23.3629668899999992
 11.3845853699999999 40.7262357099999974 35.8436476799999966
 24.1866232699999983  4.5773108300000001 30.8630833299999985
 15.8415494300000006 48.9213164399999982 20.5654492500000003
 43.5054853999999978 46.6931076500000017 21.0602267000000012
  9.2302223199999993 32.3466075700000033 49.4334876799999989
 28.6273831600000008 40.4288287899999972 37.3255213699999970
 30.0376043599999996 42.0164146899999977 19.8816764699999986
  1.3364761400000000 12.1544438499999998 29.7377380000000002
  2.1625364899999999 45.7508006099999989 33.7058747100000033
 44.6362700999999973  1.7915485900000001 10.5571534499999995
 34.0780909300000019  0.4743140900000000 21.7968964099999987
 40.4379955200000012 41.3907307899999992  4.0123178399999997
 35.0259527999999989 31.1886423400000012 37.5118296500000028
 11.3209868399999998 21.8257666400000012 25.6599761000000015
 17.2182566600000015 37.2396282799999980 36.4324889800000022
 20.8422550999999991 45.7815138099999999 49.9026682200000025
 14.1448195900000009 31.9827764200000004 34.5233096700000033
 33.2655717100000032 44.4636882499999970  1.2084006800000000
  9.5902340499999994 33.0637309600000009  2.1262806599999999
 36.3990817199999981  9.3663935600000006 20.9765514499999988
  2.9001471400000001 42.7729268499999975 34.5816094099999987
 13.1093936600000003 29.5791893399999992 37.4352439000000032
 24.1442530799999986 42.4614503700000014 49.5963883399999972
 16.4987488999999989 44.4726941400000015  2.5703821599999999
  0.4129228900000000 39.9949828999999966 45.6776801700000021
  4.7706330699999997 30.0299788300000010 13.8541396100000007
 46.5243804300000008 35.2618069299999988 45.1891050199999995
 43.2880475400000009 42.2149835800000020  7.2290570499999998
 48.7618541800000003 40.4832114900000022  1.3354903800000000
 45.5868027599999976 27.3940177300000016 11.2559818200000006
 29.2865318600000002 18.7409968900000017 29.9347321599999994
 13.0434841400000003 21.8380149099999983 31.5165754100000015
 49.0828969499999985 36.2490581300000017 37.9199648700000012
 20.8495455199999995 18.3115422599999995 12.0907270400000009
  8.8493711400000006 31.3806765399999996 15.0305964599999999
 19.2346836100000012 27.3273730499999985 41.1589269299999998
  8.0848323499999992 31.7772253599999992 29.8265657799999993
 45.0909962200000010 44.3733960599999975 33.6675749099999990
  0.9314859800000000  5.4847918199999999 32.8961919199999997
 36.2976246899999992  4.1781905100000003 22.8479463699999990
  5.4346632200000000 40.3848019200000010 47.3657869999999974
 26.7820324200000002 25.6188408800000005 25.8587101100000005
  7.3408677700000000 27.9646818900000014  2.4085069799999999
 29.7767875400000008  8.4681664399999992 24.4733572799999983
 23.7158363600000008 42.0616396899999998 29.9782676300000013
 44.7440510400000022 13.2657593600000006  7.6176367999999997
 29.6216444900000013  0.9790254300000000  4.4803947900000001
  1.9952853900000000 34.7615800700000008 37.8762818399999972
 36.6688022100000026 42.5587352300000035 34.6630620500000006
 32.0838170500000004 32.7131733200000028 10.3040191599999993
 29.6500653599999993 28.6485596700000009 46.3423625100000010
 26.0866776199999997 38.7908101299999970  7.1457918500000002
 49.3236797599999974 33.0857696400000023 22.5303370600000008
 17.3749850399999985 21.3736434300000013 26.8251848799999983
  0.8822190600000001 27.4557068099999988 48.0644237500000031
 18.7699223999999987 16.0857027700000010  2.4064626100000002
 45.4170699000000013 24.6937709000000005 28.2075905400000018
 34.9741594300000003 10.6975909100000006 44.4104907299999994
  7.1177153899999999 27.4425282300000006 26.5719126099999983
 44.1352402799999979 30.9833255700000016 36.7529234599999981
  6.3845155800000004  4.5533368899999997 27.9330276099999999
 20.3950125100000008 28.9752901200000004 37.7010485599999967
 41.5230903699999985 28.5799074600000012 42.5046557800000002
 25.7496246999999983 23.9422574799999985 47.5213836900000004
 41.8956223599999973 39.7250124400000004  8.2841434799999991
 31.5994472199999983 41.9093546200000020 20.5230766299999985
 31.3489278200000001 31.4299143100000009 42.5697507499999972
 19.8009140200000004 43.9619059400000012 17.7531562600000008
 27.2972541100000008 34.9497545400000007  0.5246217600000000
 17.3179167199999995 12.2262636699999998 36.8135389799999970
 25.1496544899999996 40.2430527599999976 14.9876789499999994
 47.9201000400000012 43.1213839899999982 41.1006844599999965
 29.2036538099999987 25.8096658699999999 33.0543525399999965
 44.5032037799999998 15.3458783499999996 18.1773855900000001
  7.3196131800000002 20.7386660499999991  4.7602791099999999
  6.0110496600000003 27.7116657099999983 49.9656399699999980
 22.5109956300000000 42.3036073099999967 46.7280017699999988
  7.5256852900000002 34.1927258199999997 27.1428973999999990
 40.6766119799999970  1.8176072299999999 48.5246903999999972
  4.4714765900000000  2.1070092499999999 12.5043986000000000
 11.4271992200000003  6.9372438900000004 44.2579885899999965
 44.0142623599999965 47.7074620799999991 19.3151263399999991
 29.3283581200000008 21.7148754100000012 11.9110971299999999
 39.8094286600000018 27.0675374300000016 24.1016213400000012
 25.9499096199999997 40.1309827299999995 31.4267375199999996
 39.1774770299999986  5.8564225199999997 28.8933592099999998
 10.6881613000000009 35.9269045500000033 23.4847056800000011
  7.4483449100000003 34.3329693599999999 34.2160057199999983
 18.4081410599999984 35.6268109199999969 29.8111679599999988
 36.2999657800000008 43.5248706499999969 22.5009467299999990
 23.4117326400000003 30.9905404599999983  8.0135148100000002
 33.1433375800000007 40.0746284000000017 34.2795297400000010
 36.0563910500000020 49.7643795999999980 39.9279833699999998
 19.6165405799999988 45.1974790499999983 34.0304285699999980
 49.4129409499999994 33.2986225499999975 49.9492467600000012
 46.9903182700000031 16.2791470599999997  3.6246494899999999
 19.4839324000000005 16.4517822100000011  5.1035253599999999
 24.9507047799999988 46.4952674000000030 45.9591574199999968
 35.5588412999999974 37.4457446099999984  0.6296625100000000
 32.7378575799999965 25.1724185499999997 22.8386358700000009
 48.9530622999999991  4.1179992299999997 11.2130211699999993
  7.2468351799999997 47.5589363599999970 23.0433883299999991
 40.2275829100000024  4.9859091900000001 48.1757488800000004
 39.8114122400000028 10.4055225700000005 35.6177747899999986
 27.9408637999999989  2.0979370500000001 10.0279421400000004
 39.6234788000000009  1.8081113700000000 38.9278031799999980
  9.5881035099999998 47.2557436900000027 27.2841892299999991
 15.3684427800000005 47.4178041999999991  1.0352195500000001
 48.9349402200000014 49.5403607100000016 24.8425217899999993
 28.2637694099999983 29.1723912699999985  0.3801045500000000
 38.4171305599999968 26.7133824699999991 21.8190920400000010
 13.4799296799999997  7.1781277699999997 42.7934135499999968
 28.9015510300000003 48.3680840299999986 22.3883614999999985
 31.1916962600000005 38.8391158499999989 19.0200767599999985
 20.4300522200000003 17.8876630600000013 37.9530150200000023
 26.3233644799999986 16.7867776299999996 35.3716567600000005
 41.4350917800000005 49.5874721599999972 16.6445174599999994
 44.4048910799999987 13.0044510899999999 15.8094384300000002
  9.2317190100000008  7.5013410100000000 25.0383586300000012
 19.6934502199999990 37.8178439499999968  4.5032878199999997
 36.7583814700000033 48.1173896700000014  8.9681629399999991
 27.9144755899999986  8.5912872599999996 43.7649981599999975
  8.3240000999999992  1.4697403700000000  1.9263210200000001
 25.6774667100000009 11.1829471399999996  1.7925161199999999
 26.8183921800000000 36.7174053999999970  9.4325048200000001
 32.1085003600000007 47.5655286599999982 33.8401239800000013
  0.9636574900000000 46.1914259500000028 39.2958693599999975
 45.6763707100000005 32.7624913900000010 39.1928308399999992
 13.9078610600000001 49.4209050899999980 17.1518420399999982
 21.0091911099999997  1.4750215900000001 40.6879140300000017
 41.7710242100000002 45.6038237799999990 13.4662061299999998
 26.5264166900000014 29.4852674800000010  8.8906089799999997
 24.4651548699999992 35.8578637199999974 13.1155024800000000
 32.2501971100000020 29.0627788400000000  8.1240008400000008
 40.0821013300000004  9.8771036199999998  4.4805125800000001
  3.9749655000000002  7.2450908900000002 18.2425310699999983