Na Cl 
 1.0000000000000000
    50.0000000000000000    0.0000000000000000    0.0000000000000000
     0.0000000000000000   50.0000000000000000    0.0000000000000000
     0.0000000000000000    0.0000000000000000   50.0000000000000000
 800 800
Cartesian
 33.1234656900000033  6.0878421200000004 18.3625247899999984
 18.9541129899999987 11.7771057700000004 37.8166758899999991
 34.8716231699999994 37.3706031500000009 37.7271956499999987
 30.9772461600000000 34.5761509100000026 21.3683018800000006
 37.0496857400000010 44.0682076100000018  4.3653398100000000
 18.2661430500000002 49.0662911399999970  7.1552518799999998
  8.3183278600000001  6.1363450999999998 33.5520597100000018
  9.4675428999999998 20.9934809999999992 37.4352366099999969
 24.0217704000000012 33.8950659300000012 24.3730959799999987
 38.6241842900000023  6.6654286400000000 25.8591161199999995
 14.1646791299999997 15.7621639200000008 14.6889288300000000
 26.8268115899999984 28.2224661099999992 34.9879167400000028
 41.9167137700000012 44.2082771800000032  8.5145165699999996
  3.4800218400000000 38.7271227700000011 36.7524428500000013
 48.3069198700000015 44.4021943199999995 17.6799901099999985
 47.5938543199999984  9.9095570199999994 49.9248393299999975
 36.7746953999999988 22.3056276699999998 40.6841918100000015
 29.2117241700000001 11.4480801900000007  7.8837723500000001
  2.5618997900000000  7.8497370499999999 30.5306140200000016
 28.0299059899999996 48.6300485000000009 25.2250881100000015
  8.0557836999999992 43.5565714000000028  5.2955128499999997
  1.6844867500000000 11.1688134100000003 14.2469476700000008
 48.4495602100000013 41.7584078599999984 33.5608708800000031
  7.5569280699999997  9.2900577700000007 38.0010126999999969
 33.0205061200000003 25.6462933799999995 37.2529181600000001
  9.7955023699999995 33.0083034399999988 20.5558956200000011
 32.9377370799999980 34.5471154100000035 33.3687428499999967
 28.4611478600000005 46.5120501600000011 28.0269839900000015
 49.5199727099999976 32.1813791399999971 22.4392759700000006
 36.9112583499999971 17.5191133599999986 43.7382373000000015
  8.5542983199999991 22.0918348199999990 47.4677557600000029
 40.5710239599999980 27.1997258899999999 45.7930202599999987
 43.2914699900000031 49.7360584099999983 13.9336834700000001
 33.4181249100000031  8.4253026700000007  4.0619367300000002
 18.9705990100000008 38.8575785299999978 29.3223130699999999
 20.1156889200000002 34.3836483899999976 35.9785555099999996
 41.5824533899999977 26.2940696600000017 24.4287135699999993
 23.3889019500000011 47.2750039100000023  0.9906481700000001
 49.8238322799999978 39.1491129699999973 29.1417053300000006
 34.6415449599999974 20.4460768600000016 37.2137691499999974
  1.8181599500000001  7.8141993899999997 33.2491131199999970
 17.8441886399999987  7.2784851300000000 29.4996455900000001
  0.5434560100000000 33.8652043800000015 22.4899492099999989
 38.5763698399999981  3.0479633000000002 27.1192347100000006
 42.9777014699999995 26.2286651999999982 25.1760192300000014
 33.3552535299999988  1.7461005100000000 46.7113401000000010
 27.4931060500000015 26.6334010399999990 27.5712996799999992
 40.8338052200000021 43.7642955000000029 46.5144002099999980
 17.5243217300000005 31.2753948299999998 45.5609008200000005
 42.0600540399999971  3.3283063500000001 38.8447553299999981
 13.8028869499999995 35.1209176600000035 27.2631704500000005
 12.1057003299999995 10.5054920400000000 15.8046412400000005
 28.6052455300000013 18.3616689300000004  4.5696376100000000
  1.8993880400000001 23.0147475300000011  8.8616544699999995
 37.8266014599999991  1.6906839300000001 15.3248747400000003
 15.1697827800000002  8.5391944800000008 18.2415912899999988
 36.4248851299999998 43.0442975099999998 45.5082558300000031
  7.2557472000000001 47.3431217899999979 45.8479875000000021
 17.1258803300000011 34.6707129300000005 10.6722379400000005
 18.3030337600000017 19.0884818900000006 20.1150874199999983
 24.2743272200000000 28.6176109799999985 26.1877740599999989
 37.9186641399999971 48.9881482700000035 43.8079219500000008
 29.7442396500000008 11.4358693599999999  2.6564131299999998
 46.3354262000000006  9.5082116800000005  4.5137447799999997
 12.5085035199999997 30.4186008299999990 45.4241729299999975
 44.0744683599999973  9.5897005400000008 24.0970596999999991
 49.2824050400000004 39.3814428700000008 33.9102488600000029
 29.5526483199999994 41.3603710399999969 43.7561299199999993
  9.2754933800000003 43.2172266500000006  1.9283099299999999
  9.1050637699999992 28.8067748200000011  5.4644094299999999
 40.3293570200000033 15.5034783800000007 16.9611900400000017
 16.7210448599999992 30.6009807800000004 10.6839130200000003
 14.5261551600000001 41.0896967600000025 44.5334274100000016
 23.3144185399999984 45.4323707599999977 31.8553512599999991
 42.8886245400000021 29.1127065999999992 47.2598777799999965
 46.7659128800000019 44.6977990000000034 35.9077194899999981
  1.0414227400000000  3.1919617200000001 47.3006628699999965
 32.2408123800000013 21.3336546499999997  4.7337681299999996
 10.4409776200000000 31.5108777899999986  3.3229645600000000
 49.0653430099999994 41.2199814299999971 34.2278895600000013
 18.1398237900000012 26.0184503700000000 42.0954479800000030
 48.1941983800000031 49.8921623000000025 37.5717548100000016
 18.4831420000000008 46.1676708600000012 40.0442071900000016
 22.9902610799999998 47.3178967400000019 21.8904341699999989
 12.5270497600000006 42.1252791000000002 49.5658919199999985
  3.9455215899999998 12.3814147000000006 44.4369022200000003
  1.0156836400000000 20.5948793700000010 38.1375010499999973
 26.9802074500000018  6.3466783400000004 18.6228766700000001
 44.6881228600000000 23.2808534199999997 31.3033700400000008
 15.7402083600000005 45.6818793400000018 25.3460918200000016
 41.7652280499999975 48.1878316499999997 42.8865199199999978
 43.7402567800000028 42.4956965200000027 25.1714540999999983
  6.6290511800000003 14.4631495799999996 32.1549349800000002
 27.9922879199999990 16.3830689700000001  0.2401729300000000
 36.5865156899999988  9.5692410900000002 30.2349606900000012
  8.9843210300000003 49.4836191200000002 21.1865140200000006
 31.7411741599999999 23.9141448499999996 25.0325145800000008
 21.4725160099999997 38.5766472099999973  7.7097401500000000
 27.6027421799999999 19.2878669500000015 21.1797454000000016
 17.9809837899999998  6.3945898600000000 23.8717486699999988
 12.4799427200000004  0.3972426300000000 26.4568681999999988
 10.5837565199999997 31.1958274899999992  8.2727073299999994
 39.3920358900000025 11.9472360099999992 47.1955549199999993
 15.6915264299999997 27.4846707099999996 34.8606784999999988
  3.4235332600000001 39.3235727400000030 11.2870351899999992
  1.2004881199999999 26.6037849599999987 29.8138234699999991
 30.9310104400000014  7.4924252700000000 25.1915622399999997
 44.5865458999999973 16.0769689699999994  5.6174286899999997
 12.1239931100000007 17.9522775199999991 23.9282739000000007
 12.4994280100000008 27.8865771500000008 39.7021566900000025
 24.1475482600000007 47.8435784799999979  7.0235152300000001
 44.2204637199999979 13.3337306400000006  0.0108437600000000
 32.2510956699999980 44.1649322800000022 30.0168913000000011
 43.8920749799999967 44.1041696999999999  8.7801849700000005
 18.5688634999999991 36.8887691700000033 39.5434360200000015
  6.5291948599999996 36.1780908599999975 45.1730720400000010
 23.8218494300000003 23.8234308900000009  0.4029548500000000
 22.4621572600000015 21.4771299300000003 16.1226617499999989
 23.5759990899999998 41.8166472300000009 12.3900040600000008
 38.7981964000000019 31.2868784099999999 38.5654278499999990
 19.1458950399999992 35.0578936200000015 18.0180931300000005
 30.0912609700000004 43.8231174300000035 35.1347126499999973
  9.1154465699999996  3.3105475599999998 40.3728588000000030
 46.6378074599999977 41.6299623399999987 24.7770454399999984
 27.8026836599999996 29.7042535500000007 39.3894542399999992
 18.5574535099999984 45.1211997999999994  2.0050110499999998
 48.2207805099999973 46.6581035600000007 32.7465710099999967
 21.6190488199999997  1.3534813900000000 47.9617096500000031
 42.4540442099999993 25.1211158099999992 10.5934470899999997
 44.0653110100000021  5.6821924700000004  0.6087773000000000
 31.7201091599999998 19.8746352500000008 32.9947292000000019
 42.4137098400000028 47.2213591200000025 49.3827352099999999
 25.6306149400000010 23.7453262900000013 37.6989524800000027
  6.2942544299999996 37.5341386200000002 36.2678592700000024
  3.9107976700000000 28.7764940799999991 46.5359650500000015
 29.9646560899999983 15.9749730799999998 41.3725511399999988
 48.4669487700000019 34.0079495100000031 21.6074871500000008
  7.0364722300000002 11.9887970399999997 45.7119248300000010
 30.3206544499999993 49.2393590499999974 15.9075640200000006
  8.4285110999999997  7.9860122400000000 20.9077948300000003
 47.3077684200000022  1.6637722300000000 13.0198206299999999
 24.1254082499999996 25.7365041300000001  3.4249119499999998
 12.4951042099999992  5.2163906700000000 21.8779109500000004
  2.0493707200000002 43.7736296799999991  3.3939720100000002
 42.4876514999999984 39.9587942699999985 37.4553063600000016
 11.3339809799999998 40.2182529199999976 48.1767747099999966
  7.0525124000000003 31.5759125500000017 46.3623043400000014
 11.2489845699999993 11.6835941800000001 16.1674636000000014
 26.5607684999999982  6.8361364299999998 44.9450409499999992
 41.3032163600000004 33.1573499799999993 25.5810363299999999
 40.4776610199999993  8.0486906699999992 24.3441408800000012
  1.9758479200000001  8.0760136700000000 33.5618356399999982
 23.7715998999999982 29.2795327900000011  1.1075363700000000
 14.3638251199999996 12.8087639200000005 26.8951527000000006
 26.8313755399999998  4.9287112200000003 36.8495079200000006
 29.6795472899999986 24.1512588999999984 10.2083932399999995
 22.4652234600000007 23.0106409499999991 39.8424692399999998
 32.3805244999999999 19.4753103699999990 21.5414682299999996
 47.4564923399999969  1.2668043099999999 41.1801189800000031
 14.2597667900000005 13.9005055899999999 25.7975328600000005
 29.1347796199999998 18.2411289200000013 28.6536917699999982
 32.5975607499999995 17.2035822699999983 40.6072538100000031
 36.1147333799999970 30.3239230199999987  4.1742101600000003
  5.9500985300000000  3.3060624700000001 14.9920093199999993
 20.7006383300000003 15.6284425500000008 17.2339049499999994
  0.2404627400000000 41.4572566000000009 22.1116919900000006
 31.2072287700000004 49.8939235900000000 17.1738225799999995
 40.4361253100000013  9.9580752500000003 15.3706878499999995
 35.1506869899999970 27.5963047900000014 11.0945730299999994
 16.4888966400000001 28.8858952100000010 35.2408537100000032
 43.0283153600000006 26.8963059300000005 46.2137703300000027
 14.8379371800000008 31.2101900299999997 49.6637623100000027
 48.8530720099999982 23.5812940699999984 30.8095094399999994
 15.4252011899999992  1.3563438999999999 46.0719667600000022
 31.5453178899999997 32.1577131199999968 24.6844069200000007
 20.8271310999999990 41.5923884999999984 43.2735709900000032
 48.9076420900000031 40.7405940800000010 27.1646566599999986
  6.3844555099999996  3.5437352500000001  9.5583571400000000
 47.3084493499999965 13.1082719999999995 10.7274223899999992
 45.7880540499999995  9.8244157899999998 18.9561797600000013
 46.5132717700000029 48.5586811100000020 25.7533874900000015
 37.1836255899999983 45.1953639500000008 48.4818854399999992
 35.0485264699999988 10.5844143800000001 42.2525306699999987
 38.2829065800000024 20.8109669299999993 19.9211108599999989
 14.1102089599999996  0.2820114400000000 39.7662277299999971
  0.9894342200000000 29.4208789400000015 26.7123131399999991
  3.8470089900000000  6.6801271199999999 22.8965052000000000
 21.5629711399999984  8.8559195899999992 41.4405595200000008
 41.4839173599999995 20.1991157000000001 36.5375729399999969
 36.9884830399999984 15.4344083800000007  6.1016648099999999
  0.6804698800000000 36.6573547400000024  0.1611431400000000
  8.3326915600000007 47.5469659999999976 21.8575661900000000
 10.1149064499999994  1.2327653400000000 19.0870049000000002
 45.2914094100000000 12.7178947299999994 49.6566727800000010
 29.6993392699999994  6.7950402199999997  4.2409528300000003
 27.6942128399999987  6.6352767200000002 19.0958368000000007
 43.7290680099999989  4.4460438699999996 24.6592865400000001
 48.6289455799999999  6.6883325100000004 10.8045666100000002
 42.3509524600000020 42.4580521600000012 42.4826760300000004
  6.3359953300000003 39.0734436600000024  7.3676575900000003
 28.2211838399999984 13.4368350299999992 32.8863933399999979
 21.6128148200000005 46.5787455700000024 48.9767218200000016
  1.7636904300000000 42.3450038300000031 42.4793154199999989
 49.8542623399999982  0.5870826500000000 17.0981743699999988
 19.0166120999999997 12.1995170200000000 37.2825414599999974
  7.6742873100000004 31.7468144400000014 18.7102598700000016
 13.3376198699999993 15.3770711299999991 42.4345568000000029
 47.5961713100000026 48.8512225400000020 42.4973032899999978
  2.1763412299999998 27.7670391700000003 30.6273835400000003
  4.4351368500000001 41.3449786099999983 35.0554940500000001
 27.6884210199999998  9.2920698300000009 21.8175803200000011
 38.0724045199999992 32.9026997899999998 45.6754395999999971
 17.1132747400000014 22.8085491699999992 43.2858659899999978
  5.5496175599999997 22.4222745400000001  1.1681687800000000
 33.4126699199999990 16.7432999799999997  4.6427336099999996
 30.4237452899999994 31.8871612800000008 27.5196482099999997
 22.7274485000000013 30.2270037999999985 25.2528015900000007
 23.8362803899999989 16.3645708300000017 39.3419586099999989
 20.2983118900000008  3.7279705999999999  6.0018742300000003
 23.5001031900000008 16.2342882099999990 49.6819324800000004
  4.2391744700000000 47.8053086399999998 13.8223579700000005
 12.3703739699999993  8.8752523599999993 16.3663667900000007
 19.5266995700000017 35.2396224599999996 22.3346124000000010
 27.8306765799999987  0.1813544400000000 48.0241183899999982
 41.3577485100000004 49.6791922000000028  8.1833392899999993
 37.3834225499999988  3.1828368600000001 43.9390440399999989
 33.5132529600000026  7.2425818800000004 26.0736621799999995
 20.0402674599999990 16.7751856900000007 40.5459335999999979
  5.5059498700000002 38.4994100999999986  9.5854810700000002
  3.1803712499999999  2.4995927700000000 10.6557031200000001
 40.4023575100000016 42.4226473100000021 47.4332556299999979
 10.7274563999999994 46.3597703200000026 18.6598396499999986
 15.9249661099999997  0.9054087800000000 17.2053740700000013
 20.7219487600000001 23.7928400599999996 36.2629311800000025
 21.0843318000000011 14.3645749499999997 25.4111750200000017
 35.6185102299999983 40.3014400899999998 46.3036409600000027
 25.2935508599999999  8.7093320900000002 27.7445182800000012
  2.1187304500000002  9.5027218599999994 12.2463296699999997
 24.0627472900000008 22.5936469299999985 31.4238878100000001
 41.2824450700000014 34.0543227900000005  1.0031222600000000
  9.4758293600000005 10.2641132899999992  8.9521336599999994
  8.5104971200000001 35.9251503099999994 44.0012073999999984
 28.2928519799999982 17.9631962300000012  7.4390236999999999
 27.6713619400000006 22.5800757400000016  3.3329647499999999
 17.1385794500000017 48.1048029600000007 47.4233584500000021
 44.3854128500000016 35.6336860600000023 45.3616402999999977
 43.0885585199999994 39.4030886700000025 47.7111975199999989
 32.0966952599999971 49.1572849699999992 36.4884595300000001
 11.5393606500000008 42.0345015999999987 23.8684241099999994
  6.6039707099999996 42.9356839000000008 20.0393228699999995
  0.8993956500000000 16.1426851800000009 10.1098772399999994
 16.7068033800000002 41.2443904900000007 44.4709047200000001
 22.4956016900000009 33.5775357400000019 37.6431179400000033
 17.8832313399999983 13.4690674599999998 24.6167165600000004
 33.1551813900000028 39.1336346900000009 18.9982782899999982
  4.0632283999999999 40.6797733800000003  4.9512194500000000
 15.1452837599999999 46.7841247799999991  0.7851441400000000
 45.9175516800000025 36.2911399400000008 45.1889548400000010
 40.7640434500000026 21.2783074100000000 24.5126491500000014
 34.0943088699999990 23.0491460600000018 36.9978995700000013
 23.6980735899999999 43.5228277000000006 38.1650995199999983
 40.8275909400000003 39.3210064100000025 18.1547402499999997
 26.7193629100000010 22.3323697999999986 40.1392735499999986
 20.7705463600000009 40.5726932199999979  5.2549117699999996
 19.3021770699999990 11.6899425200000007 22.8639644000000004
 24.6496348800000007 36.4133552099999989 49.2610467399999976
 30.4124945900000014 42.7966015100000021 32.4816576099999992
 19.2194909600000017 21.9846409099999995 45.8598573900000019
 16.6231633000000016 35.5055975000000004 42.5771182100000019
 43.6258152600000031 19.0770130500000015 27.3582649800000013
 10.3594809600000008 11.7964711799999993 13.2911116400000004
 33.7133542099999985 20.3441957799999997 24.8984829400000010
 18.8027823000000005 18.3620585699999985 11.1183520900000001
 16.1436168299999991 25.7680942199999983 34.3595414099999985
 30.8125060899999994 15.7898439600000007 29.9074922100000009
  5.2216223499999996  9.8067782599999997 22.5222697799999985
 31.7882247699999994 14.6936253699999995  5.7616153499999996
 35.4692310499999977 31.3662452999999992 22.4847606999999989
  1.3730069600000001 26.1280251099999994 33.7180071000000012
 48.5452774199999979  0.4776094600000000 27.1821550700000003
  0.4802376700000000 21.3545744900000010  6.3334071099999996
 45.5733093600000032  0.6104896500000000 10.4996255200000004
 17.2060847099999989 32.6657708899999975 13.6113253499999995
 15.5451330199999997 17.0506601800000013 20.4455896599999996
 29.0254303200000017 30.4073151599999996  5.7458528299999996
 20.5485882099999984 10.1220461600000000 21.2297893699999989
  9.0699311900000001 38.3334325300000032 20.0005978199999994
  0.0475711200000000 49.5277960800000017 13.6686872099999999
 29.6258646399999996 21.9070621199999991 41.9929998699999985
 26.3487423199999995 43.3121627200000034 47.5187771000000012
 48.0867377900000008 43.8021022599999981 31.9326245600000007
 41.6209925200000015 24.0212162599999992 24.5816865100000008
 44.4052056199999967 18.2907721999999993 13.0084397299999992
 32.8465956399999968  2.7329487000000001 32.6688686800000028
 15.6758555299999998 14.1038660300000007 43.6762965300000019
 17.5157038100000015 36.4339529000000013 45.4464034599999991
 17.7029888900000003 34.1343188600000005 45.4970539299999999
 18.9853909300000012 37.4653285999999994 29.7777959999999986
 25.4173430300000014 39.2842495299999968  0.3818480300000000
 17.7198397099999987 17.3459692899999993 33.7059224599999965
 45.4388642700000034 40.9917226700000015 47.8829445499999977
 18.6491196799999983 35.7545107099999981 26.0614543599999990
 14.8633883200000003  8.9674456300000003 15.8587363900000007
 37.7824315299999967  9.3266889299999995  3.6607852200000002
 26.8172306599999999 17.1957012300000009  8.1506499100000003
 37.9730831800000033 13.6089654000000007 25.8814849299999992
 40.1172400199999970  0.4529713400000000 13.0893488700000002
 42.6864721500000002 31.5375013899999992  0.7858440100000000
  7.6801933599999996 31.0098297100000018 32.2079478699999981
 18.9798177999999993 43.7977760300000014  9.2217409600000000
 39.8002484300000035 22.7753632999999986 35.5310517099999998
 20.3860278599999987 27.9701910799999993 45.0014990499999996
 40.1945305200000007 49.4745236600000027 18.3191304200000005
 39.6249359899999973 26.2991686899999983 10.1282395899999997
 25.3228484300000005  1.1135717400000000 15.8002231299999991
  4.3502192700000002 14.1353241900000004 22.3937155799999985
 21.1777247399999986 34.0196283499999979 17.8936108099999984
 37.9168816600000014 19.0299806999999994 36.8855781299999990
 35.9116754000000000 17.5283861899999991 49.5866849599999995
  3.4140402200000000 29.7740350599999992 12.2072803800000003
 17.7614218400000006 16.2168737299999997  6.9968533700000002
 46.1146480399999987 48.8895843299999981 37.2437771600000005
  6.1626998500000001 26.4963848599999992 24.7404087900000000
 12.0505599799999992 33.7616289199999997 31.6972444899999992
 35.5881650600000015 30.2902175299999996 37.6859504199999975
 37.7687198799999990 28.8749415800000016  1.1431262099999999
 12.5222707000000000 11.8036427100000001 33.8230680100000001
 14.3041000799999996  9.0099909399999998 30.9177029999999995
 33.8343577600000032  4.0509009100000002 33.4915173400000015
 41.9319265999999971 49.8902824199999984  5.9767021099999997
  0.4324080400000000 17.4819695099999990 19.4616322299999993
 41.6528281499999977  9.0826902300000008  2.7747762900000001
 35.6650523500000034 22.5349167000000001 44.3449787999999998
  6.0586950300000000 28.4873763699999998 37.3346465999999992
 33.4054842700000023 45.9742046200000019 38.4570069999999973
 46.9166876299999984 28.7689439399999998 19.6407791600000010
  2.5752604300000002 32.4019672499999984 29.8635707100000012
 17.0329953399999994 23.5526631199999983 49.6091087100000010
 30.2901126800000000 35.9238433800000010 22.0357194400000012
  4.3366493699999999 36.0659236500000020  9.9787673500000000
 13.1428409399999993 41.7277273199999996 17.9130971700000003
 15.4242168300000007 34.8121819200000004 38.3416109200000008
  7.4547298099999999 41.6438401400000018  8.0212413399999996
 13.0031521500000000 43.9781727000000018 41.1485830499999992
 34.2353440699999965 43.4278647599999985 42.1230508399999977
 12.1155410600000000 25.8985883200000018 27.5739131399999984
 34.7581287300000028 29.8695807900000005 18.0444214999999986
 22.5922223100000004  7.4802850200000002 21.1502892799999991
 22.9118654100000008 29.7220222599999992 38.0280524400000033
 37.4774204499999968 33.0055178799999993 23.7389460300000010
 30.4659540699999987 41.2900108299999999 11.2120833799999993
 41.4853101300000020 43.6073948399999978  9.4850197499999993
 14.7269022700000001 15.0464848199999999 36.2704027400000015
 46.6588178900000017 44.7522214600000012  0.5860604300000000
 49.9177285700000013 17.2640802200000003  7.3962344800000004
  8.5129430999999993 27.0347201199999994 22.5409870099999985
 46.3687458300000017 19.5111505299999983 23.9069785999999986
  4.5893875000000000 33.8356655700000033 26.0312589699999997
  7.3695174200000002  9.4793113499999997 18.7857894300000012
 32.7629741900000013 47.3072104800000020 42.2866078999999999
 11.0189568999999992 45.6086202700000030 44.0809400500000024
 18.3594065600000000 16.5460051999999997 38.7094732799999974
 40.1173951800000026  3.0607175799999999 41.4803581700000024
 10.3798275400000009  3.7614582799999998 18.8293497400000014
 14.8810778799999994  6.2759523799999997 29.9316083900000010
 10.5422425600000000 33.4707035099999999 42.1139605799999970
  9.3354214700000000  0.4286879400000000  4.9582794600000000
 33.8028246900000013 24.0746103600000012 21.9762735900000017
  5.2301760799999997  3.5693551900000000 40.1526715999999979
 45.9516253299999988  8.9669272099999997  7.1456394899999998
 46.7628917400000006 43.9214892000000034 38.4689148499999973
 47.0518196900000021 49.9335621700000019 33.3794183300000000
  7.8837936800000001  2.9203475000000001 32.2804340100000005
 37.2543705599999981 34.2059480899999997 49.3695219700000010
  3.5558219300000000 12.6992063200000000 35.5606039700000025
 17.0709001700000016 10.6191208400000008 25.5639624400000010
  3.5167883899999999  6.6624121499999998 25.1610700200000004
 32.1037559199999976 17.8257828200000006 47.9318485100000018
 40.5779411700000026 43.4573106899999999 37.0207717299999999
  8.1105483300000003 13.9857284800000006  8.1385462799999999
 34.5473541599999976 37.3813223699999995 17.8851288599999982
 45.3607395499999981 27.9496211499999987 49.2825939299999973
 42.5562095599999992 42.2140091400000017 40.8515967399999980
 42.7863857899999971 10.7859861600000002 30.0694273699999997
 26.8657940599999989 33.4007075700000016 15.6920913899999999
 36.9800132199999965 23.0821432000000009 41.5806863899999968
 46.5961288600000003 41.1378255099999990  3.4333006699999999
  3.4844071900000002 12.4315639600000001 37.2953917099999970
 23.6484254800000002  9.0870768099999992 26.4999573499999990
 34.7831397899999999  0.2305261300000000 24.4527108800000015
 26.7118414100000017 45.9185056099999969  2.3238486900000002
  6.9248555300000003 36.0468260900000033 39.0060591900000020
 24.8368498500000001 32.9354612799999984 46.2976922499999972
 25.3136401599999985 46.3502501800000033  8.6548072800000000
 11.3459413700000002 41.2365907499999977 13.3807849000000001
 40.8517612799999981 45.5518333699999971 39.6634265499999970
 23.2100249800000000 40.8899092099999990 36.7040471600000018
 34.9205804200000003 10.1951526099999992 49.9298486200000013
 20.9656887599999990 20.3309095599999985  1.5969065499999999
 39.2083708799999968 25.0894559900000012 28.4868188300000007
 27.9641346900000016 43.2117404600000015  9.7219405000000005
 46.6540550599999975 14.7033340399999997 18.9351533200000013
 43.1217855499999985 47.8497539900000035 10.8152590699999998
 22.0592607600000008 49.9956167300000018 26.3303861599999998
 34.8002083800000008 37.1021781500000003 26.3082045700000009
 11.9942392499999997 37.1790936900000020 19.0275730400000000
 46.4201185100000018 32.9318599699999979 35.7705089900000033
 44.9445879499999990 33.6897243399999979 23.1970443000000017
 22.7236050100000000 15.6293258799999997 32.0801361099999980
 20.8476809199999984 36.9731944700000028  8.4794441700000007
 14.0182377799999998  4.5224286600000001  8.4585506499999994
 12.8607886699999998  1.2751270100000001 31.0596427999999989
 19.4165813800000002 34.4832990900000027 10.8078808800000008
 48.0539617100000029 42.9344929299999976  0.0226008500000000
 29.8524406900000017 29.9706391699999983 16.5324698300000001
 11.2203980100000003 31.2294377599999997 23.1604745500000000
  8.0957392699999993 15.0899680200000006 17.0924596800000010
 22.9698432699999984  4.1558664500000004 47.6474995700000008
 11.5252963600000005  5.6558448099999996  7.7838042800000000
 22.3985124499999984  1.7987197500000001 31.0828487299999985
  9.4386062899999992 34.6558514900000034 10.8960109299999992
 29.2557810600000003  1.9122240600000000 38.7497901200000001
 17.7224890600000009 11.8737058799999993 11.3746735999999995
 24.1392267999999994  7.9847945400000002  0.4418392200000000
 25.9917740399999992 43.7462322200000031 42.9248408099999992
 37.7995754299999973 47.4642561699999987 31.7535110699999983
 31.2604935499999996 45.1151279199999991 49.9550256899999994
 44.1167347299999975 19.9606719800000008 29.0138881799999986
 36.4186221900000007 37.7831528399999996 21.4497349100000001
  5.6946189900000004  9.4613107700000008 16.2500506599999994
 14.6014013600000006  5.7527053900000000 35.7194816399999979
 37.3279139599999965 20.2498809299999998 39.7487836800000025
  7.8073806599999998 18.6468054199999997 46.8586294400000014
  2.9850510400000001 19.7528773300000005 36.6093058800000009
 42.6038835199999966 43.4702588700000021  4.6407953600000003
 47.8476572100000013 25.5746835700000013 33.7068097100000017
 10.3508369299999998 16.5163612499999992 40.4835888599999976
  7.6779800299999996 43.8103139799999965 19.9471245800000005
  1.3228925899999999 33.8557306800000006 13.2655971699999995
  4.8917123800000004 15.0100342300000005 23.6453048999999993
  6.6394458600000004 39.1664947299999966 21.2769820000000003
  2.2364543299999999 38.0879169700000020 43.6205823399999986
 31.1274058599999996  8.3102273300000000 19.9907820500000000
 35.0739682299999984 38.1839686499999971  7.9610736600000003
  1.7650238700000001 14.7562035199999997  7.5125527800000000
 13.4746339200000005 18.1723520500000006 22.7208659900000001
 19.5946218999999999 26.8102780100000011  0.3425297300000000
  6.8972207399999999 21.5889857899999988 46.0842559600000001
 38.0898550599999979 26.1939312000000015 41.4016577100000021
 37.6612030599999983 21.8398474500000006 12.3160776700000003
 46.3174661600000022  7.6537583500000004 36.7166298100000006
 46.3972954999999985 49.3454585100000003 49.1211467199999987
 29.1128988699999987  0.4913856500000000  8.7186371900000008
 34.1353333200000009 12.5471906799999999 30.6337502199999996
 11.4399965899999998 22.0226978299999985 35.4824073099999993
  2.8196245900000001 39.4305020999999982  8.4487731799999999
 48.5309046499999965  8.9143743499999992 23.8897797999999995
 15.5290913100000001 47.4377176500000033 35.7205092800000017
  4.5995369600000000  4.4176446800000004 47.3540697899999969
 29.8510159299999991  6.0246884600000001  6.9389775900000004
 23.3963439800000010 22.3532981799999995 41.8825264099999970
 19.6212905299999996 25.0299673600000006 28.6614935300000013
 13.7217252799999994 21.0368011000000017 15.5161077200000008
 29.2224986400000013 42.5346121199999985 29.2258289299999987
 48.5068484700000013  4.6021818200000002 48.8698568000000009
  5.6831653500000003 16.9600192800000009 47.0439872700000024
 18.2940312300000016 17.7828502700000008 26.3644732200000007
  7.7013950800000002 37.3471613199999979 43.7403320800000017
 43.7612204300000016 44.8317968500000035 38.0096501100000026
 28.1894816000000006 30.6172245300000014 33.6927171700000017
 23.4975108500000012 22.6648905399999983 28.8153394700000014
 49.4105147200000019 42.5208907999999965 48.6116844200000031
 16.5800854899999983 11.4967863099999992 26.4875608599999985
 26.4354071499999996 49.8879198699999975 16.2692263600000011
 36.8873742800000031 16.0995469000000000 35.0848120100000003
 20.4354556400000007  8.7028953500000004 19.5621812800000008
 31.5807850899999991 28.2550843600000015 33.2027782099999982
 39.0934463500000007 43.5528710000000032 43.1028782100000001
 30.0741176699999997  5.6957244700000000 28.0411113900000011
 36.9591025300000027 21.6362923699999996 41.1658916599999998
 25.1410981299999996 46.4362568399999986  4.1687741200000001
 14.5866290700000008  7.4748367800000004 29.5817689399999999
 30.7905903700000003 47.4523403700000017 31.4845480900000005
 10.7996980699999998 10.5254792199999994  1.7292365400000000
 13.2785947400000008 23.3417224700000006  4.3295756900000004
 17.1786787799999985 22.0541997700000003 14.9355050699999996
 21.0337309700000006 13.9164638800000002 44.0083813399999997