Na Cl 
 1.0000000000000000
    50.0000000000000000    0.0000000000000000    0.0000000000000000
     0.0000000000000000   50.0000000000000000    0.0000000000000000
     0.0000000000000000    0.0000000000000000   50.0000000000000000
 1600 1600
Cartesian
 33.2402198699999971 18.3754058899999997 35.4467481300000031
  3.4958326300000002  4.4589687900000001 41.8883830300000000
 18.0535367099999995 25.7914439699999996 26.7987404600000012
  6.4309265000000000 34.5817339500000003 15.2025561200000006
  9.3606282299999997 24.0786649600000011 40.1220360000000014
 31.0590962600000005 10.2307717799999995 48.5813554599999975
  6.8412205699999999 30.3941231599999995 34.0279422600000032
  7.6256075699999997 13.5863897500000004 46.4524508200000028
 26.3409393999999999 12.1684322700000003 14.8410879100000006
 34.1645783900000026  4.0690071899999998 37.8038419399999981
 19.1714079200000000 13.8529257900000005 26.1237749999999984
 12.2863435499999998 46.5760053400000018  2.9216692800000001
  4.4955831499999999  7.2660149299999999 19.9129986899999984
 27.7689866899999984 13.3592163700000004 28.3495986000000002
 21.7037287899999995 24.5697308899999989 43.4670880600000018
  1.3490904800000001 24.1637433500000007 20.0345270400000004
 20.2960099700000001 15.0394881199999997 18.6768566999999983
  1.9306303700000000 48.1046444300000005 44.7588710300000017
 12.3454394999999995 39.8017447599999983 47.9242269599999986
 12.4825815500000008 44.7481032700000014 31.3716073000000009
 12.6038374399999995 32.6959178899999969 20.2920364800000002
 48.2570792300000022  6.7306310700000003 21.7163401500000006
 36.5289416299999985 41.9220329899999982 33.6085019100000011
  8.0915865500000006 45.2951896000000005 26.2515777399999983
 10.2670401800000004  8.1443863299999997 32.7009815899999978
  5.3975410799999999 16.4729056500000013 10.1252443000000003
 24.9809021199999997  4.0220090400000004 47.9060019100000005
  6.1741414700000004 18.7957560299999997  0.2715380900000000
 13.7406174900000000 38.5580804100000023 45.6575276800000012
 16.0676766700000009 49.4418387999999993 18.9847068300000004
 25.9676095199999999 37.6132348699999994 15.6385062999999995
 36.3754407899999990 12.0333658099999994 44.7792051099999995
  4.1002885899999999 13.5503712200000006 41.0890496999999968
 33.6582960000000000 44.9809041999999977 44.0569146500000031
 14.5645370300000003 36.1738784599999974 24.3753444100000003
 26.4134169400000012 30.2985885099999983 28.3770687300000013
 33.3941649100000006  5.7296467000000000 48.1721547000000001
 29.4039724299999996 42.5646289399999986 33.7186785299999983
  9.8301192600000000 14.8143330899999999 34.4962280900000025
 28.1054580899999991 18.4341990899999999 23.5841735800000016
 29.2054290300000012  5.6457420799999998 37.9872013299999978
  0.8927417900000000  4.3113035200000001 10.0782101300000004
 34.4776924399999984 16.5768297199999992  6.7771603599999999
  3.7342002900000000 10.7042161300000007  5.7605506899999996
 17.5754116899999993 39.9443241700000016 44.2563600800000003
 16.6438837799999995 33.7547678000000033 16.3823458700000018
 38.0869954300000018 28.1321975799999997 17.8446705299999984
 15.3776033600000002  1.3797055499999999 38.7111295400000017
 17.9542253599999988  6.6655851899999998 28.4903414700000006
 37.1690528600000007  0.2714858900000000 12.8632814900000003
 43.1720295699999994 42.3009096099999979  1.3878880499999999
 26.2345249000000003 23.6599194500000003  2.2661318800000001
 36.8784739299999984 16.5114120200000016  7.3018058200000002
 21.4504792000000002 18.2038962899999994  2.8849893999999998
 38.0167810900000021 48.0397612100000018  4.2666231300000002
  9.1349491399999998 31.0902403800000009 33.6700874100000007
 43.1590526299999979 24.1976076800000008 39.1923613299999971
  6.0169242599999997 26.4460097400000009 28.0857388999999991
 37.0136792899999989 38.9079007699999977 25.0882987300000018
  9.0367259499999992 30.2530412899999988 12.8650213699999991
 22.4140843499999995 13.5156383299999998  7.3334714700000001
  3.6549370799999998 28.5274244000000010 10.4219688399999999
 12.0302669299999998 42.6962829599999978 46.4277534499999973
 11.2522277099999997 16.1911255300000008 24.2467654999999986
 15.3877280299999999 21.5449304899999987  5.6467217400000003
  4.4523169800000000 30.0914373899999994 46.7881374299999990
 18.2257506800000009 20.1917601600000012 12.9130267599999993
 29.2407524000000016 49.3255478600000004 14.4828151999999992
 12.6750310000000006 29.2460348600000017 38.1078807299999980
 29.1515112800000011 49.4500114599999989  6.3425744699999997
 49.6490843799999979  2.1612171299999998 23.5763485899999985
 47.6907286799999994 38.0768949100000000  8.3727698799999999
 21.1433935499999990  7.0154675500000003  8.9631935899999995
 44.3945933999999980 39.9313386500000007 26.0086616399999997
 27.5761658199999999 22.6189726600000007  7.0735021800000002
 34.3510721999999973 38.4704151800000034 22.2679901300000012
  8.1100700499999991  5.9472646100000004  5.6763444400000003
  2.3209276399999998  7.8308238000000001 12.6555828199999993
  2.3804619699999998  8.4243072500000000 37.3318984799999996
 37.2177747699999983 19.1405883099999983 45.8678068999999979
  0.2306347900000000 26.2789941499999991 21.0547046100000017
 16.4204398199999986 28.3321330200000006 28.1597056600000002
 30.1729557499999999 16.8672528399999990 37.9185310700000002
 46.7517632500000033  6.8849600400000002 15.5234224199999993
  2.1606722399999998 14.4183225999999998 28.7479329499999992
 16.5091283900000008 18.9208996599999999  3.5605357000000000
 41.9235857400000000  9.7055302000000001 20.8461499400000001
 11.2420489400000001 45.1164764800000029 22.6201910599999998
 27.5511973400000016  2.9737487900000001 29.7959384900000011
 30.3381678299999997 43.5867589899999999 12.6582920600000008
 47.9146696399999996  1.8526136000000000 36.8766952900000007
 36.6178120000000007 35.5662141899999966 11.3618230499999999
  8.1600014900000009 45.1449698699999971  1.5086823199999999
  6.4236683599999997 12.5940729000000005 18.5832156200000007
 28.1049047999999999  9.1349071399999993 30.3843018700000016
 18.9615968899999991 37.5589906399999975  3.9557081900000002
 33.5875467600000022  5.8983174600000003 33.0216271999999975
 44.4882773799999995 14.4778728300000008 29.6086869099999994
 33.2009091400000003  7.6799654200000003 27.1788219600000005
 44.4606517900000000  0.1746033300000000 34.5581995000000006
 19.6590276999999993  9.2785408300000007 44.4357263099999997
 31.2521446599999990  4.7953708400000004 45.7976280500000001
 20.7345677600000009 35.8804032600000014 41.9376016599999986
 45.2710272300000014 20.1545816900000005 38.0545311300000009
 32.5047337800000022  7.0606980699999999 19.1525272199999996
 46.5249578000000028 44.9657221800000002 38.8926237299999968
 18.3270371599999997 22.5135554700000000 35.3267244000000034
 36.2569823799999966 21.1028558299999993 25.6979354099999995
  5.2003995800000000  3.1156947599999998 15.4818615000000008
  3.6462589200000002 32.6736416099999971 45.8945751600000023
  0.1247758500000000 47.1077311800000018 39.6378927800000014
 44.0639801499999990 33.3144291199999998 15.6102641299999991
 11.7092757499999998 47.7975980399999969 34.2302052200000020
  7.0591841600000000 43.7082181199999980  4.0219255499999997
 46.5027339000000026 21.4487273999999992 38.7614864600000004
 14.3028842100000002 38.5749494800000008 29.1759717899999984
 10.5578404199999998 45.6239421800000002  1.5962723000000001
 28.5484646300000016 14.0451155900000000  6.2577230899999998
 23.5519483600000008 37.5960232199999993 26.3622023299999988
 19.5345401199999991 17.0157235399999998 33.2655835600000032
 44.6628693500000011 48.8451089200000013 39.7456839199999976
  5.7095884100000003 11.0524728000000003  8.9103737699999996
  6.6518762200000001 48.0835957399999998 40.9936756800000026
 30.7071285500000002 44.7094815299999979 32.2560627900000014
 27.6472479000000000 17.2954568299999991 34.7428649599999986
 23.3313707500000014 30.3482130999999988 12.4175879699999996
  2.4010058500000002  3.7053270000000000 25.4309728399999990
 18.3605124800000006 35.1332408800000024 34.3794238899999982
 14.9773422699999994 24.1915291799999999 37.0308502099999970
 27.4993974399999992 32.3727368799999979 38.5886761499999977
  9.8801195400000008  5.1691670500000004 28.1905429299999994
 48.4550853499999974 34.6194530799999995 49.1478577700000017
 28.0455704700000013 11.9028492900000007  1.1879937000000000
 16.6101668599999996 17.0743706899999985 18.9482682900000015
 13.5452146500000001  4.4225757500000000 30.2306244299999989
 36.1047791700000005 13.0235405499999999 36.6459677599999978
  8.7801964100000003 18.7610008599999993 16.1414680799999992
 39.6540959100000023 16.3899335899999983 15.6137693300000002
 20.6210963999999990 28.7671774999999990 39.9522300100000010
 27.1297181400000014 19.1727526099999999 36.4531323000000000
 17.7945960200000002 23.7752461500000010 40.5619606799999985
 24.8731444000000010 42.9379427800000002  8.0042575100000004
 27.5558993299999990 32.0001210699999987 26.0348247000000015
 17.2987660699999992 40.3613494200000034  3.1996995699999999
 27.3506582099999989 32.5126085599999968 39.4120373000000015
 48.1109269000000026  0.3483319000000000  4.4141730299999997
 39.0061390500000016 26.1790721799999986 41.6661278300000006
 32.6104486999999992 33.8112650400000021 15.9314663700000008
 10.1552625499999998 29.4976221500000015 16.5355336699999995
 12.7143858800000000 40.6834151300000002 16.1581228800000005
 19.5712362000000013 33.7668832499999994 20.0068646699999988
  5.3744572899999996 28.5037373999999986 12.3145218500000002
 20.1687838299999989 26.7497932200000008 33.7746439900000013
  0.4415260600000000 20.7285407100000008 34.5837059400000015
 48.3456646599999971 45.5858569099999968 11.4970964900000006
 31.7007054299999993 43.7560893100000001  8.5930339799999995
 23.1221005700000006 13.1442145299999993 14.8135600400000005
 21.5036724799999988 12.2233616200000004 38.0388231200000035
 18.5001674700000009 32.3146010899999965 11.5005188199999999
 39.2198236600000030 17.5762687000000000  4.3479741599999997
 26.4016587600000001 32.6788515200000020 33.4575597099999982
 21.2060792199999995 10.5735136500000007  9.0438787200000004
  0.4695949800000000 42.4829050600000002 10.1853950500000003
 35.9345418799999976  1.8453792200000001 15.2885703900000003
  5.0025562099999998 27.9621888100000007 10.5072999199999995
 46.1897372500000003 10.9139325599999992 30.4645589200000018
 17.8418172099999985 17.4219170400000003 10.1597477000000005
  4.8796455900000000 12.2033710200000005  2.0567039999999999
 17.0240754099999982 23.6354294100000004 40.6621110999999971
  8.1013379400000005  9.1867969400000007  2.4961943700000000
  3.5388602699999998 27.6244886799999989 34.7812679500000002
 18.7704783000000006 25.4288223900000006 32.2179479200000003
 37.0507063299999970 11.2212611199999994 45.7356131800000014
 28.4507979099999986 22.5604277700000004 23.1094881299999990
  1.1670031400000000 13.8217023900000004  1.3520200000000000
 23.4002149999999993 37.4135145199999997  8.9384711400000008
 28.8844317299999993 10.6441403999999995 46.0677390199999977
 10.4897113799999993  0.5791613100000000 33.9641982099999993
 36.2793981000000016 47.8439234200000030 12.8208982599999999
 30.8370307699999984 27.9761466100000007 45.0960660599999983
 29.5822087300000014 38.1822048200000026 28.3163521799999991
 12.9310951900000006 32.9167931699999983 32.5428531399999983
 47.7327641099999980 44.5663785099999998 27.1235687600000013
 15.8200680800000004 37.8842500900000019 20.5912850700000014
 27.7281046499999988 26.2548667999999985 15.5462515400000001
 35.8495991400000023 24.2127095499999996 43.0093427899999980
  8.0241952800000007 12.6501168600000007 10.5141482800000006
 11.2901933499999991  4.2797070699999997 29.0367507300000014
 20.6694823999999997 41.9907284599999997 38.1732783499999968
 28.2891579799999988  5.8781741700000003 44.4732415900000007
 11.7714531800000000 42.8135534000000035 17.3920214999999985
  7.7052759699999998  2.5732966899999998 49.3973854500000016
 21.8571921700000011  3.8287666599999999  0.0813287500000000
 16.8922178500000015  7.5054484900000000 44.0728052700000035
 31.6382140499999984 43.4635957899999994 42.6544515799999999
 43.3677848600000004 32.3601931700000023 27.7666368699999992
 23.8657918199999983 12.3630705600000006 36.1268682099999978
 34.2740187799999987 43.4336587800000018 39.5030416700000018
 27.6214018099999983 32.9002661299999986  4.7728772499999996
 17.7479915199999994 40.4934273800000000 23.0339010600000016
 30.7750922100000004 36.9747273600000028 34.2426778199999973
 16.6861368699999986 43.9022963800000028 15.8953228600000003
  2.6912639199999999 32.0726411300000009 44.8795284600000031
 40.2348043599999983 26.3568523500000005 29.6173836900000005
 29.3677467099999987 33.7188848199999995 13.2972008400000004
 36.0544805099999977 17.6539604899999993 10.1139001799999999
 34.3203726899999992 22.5037169299999995 19.9704120500000002
 42.7153147499999974 16.2949869499999984 19.8456435800000008
 45.7316315200000005 11.5310362400000006  2.1260202200000000
 32.0217933899999991 40.2814850899999968 10.9198477599999997
 29.8813623499999999 16.0570422300000004 20.7086961100000018
  1.0555448900000000 40.5430448899999973  6.9554594800000000
  0.4075533700000000 49.7495102900000035 40.0194907300000011
  7.5806682500000004  8.2912761300000000  1.4779017500000000
 39.0947905299999974 16.1444684999999986 40.0821322800000033
 10.3971658599999994 45.1665346999999997 13.9486253599999994
 34.5463572000000028 20.6254571099999993  2.0576037500000002
 32.1461860900000005 30.9496796399999994 21.2656563500000004
 11.8862404300000009 22.0429247299999993 25.4360175099999992
  3.1463098999999999 30.0304216500000010 21.2966254500000005
 32.3840151699999979 28.1429483000000005 48.5320576200000033
 28.2924646399999986 11.4532222800000003 44.3068462199999971
 15.1643601100000005 17.4003418200000013 47.5448853099999980
 36.8873917399999982 16.3930357499999992 17.7518673800000002
  5.6350379500000001  8.0828424800000001 48.3335842400000004
 42.5502723999999972 42.4281924000000004 40.6296607800000018
 12.7086652299999994 44.5364687799999999 24.4307840799999987
  8.1880702200000002 16.8962036799999993 24.4952561700000011
 41.7704166999999984 35.3935424399999974  9.2677945499999996
 13.8230810500000008 24.5231601499999989 10.7526810699999995
 20.3106712400000013 11.4515502999999992 16.2058760699999986
 22.1591426600000005 28.7107344399999995 41.3137075699999983
  9.4831014800000002 32.4865654299999989  1.7051184600000000
  7.9258864100000004 10.3728658300000003 36.7560639000000009
  9.1659411800000008  1.9734638099999999 18.0061770199999991
 29.8172108499999986 37.8627596600000018  9.4016045100000003
 12.7670716800000008 26.1737032399999983  1.4304381799999999
 41.3744944299999986 31.1279529599999982 17.5054285800000002
 13.7380714600000005 45.7670151700000005  6.2239655100000002
  6.1883092199999998  6.9130407399999996 37.4757939200000010
  5.6684013699999998 18.8218513600000001 38.8557929299999998
 49.3117088199999998 31.8901645400000007 27.9954254300000009
 19.1151884500000016 18.9722345499999996 16.3461352799999986
 29.4956083100000015 32.6888345300000012  1.2420031199999999
 24.3465182700000007 41.9325935399999992 11.0995998000000000
  0.9737701600000001 16.1551218799999994 19.1334168700000014
 25.3374158099999995 45.9474465600000030 38.7342634299999986
  6.7655109400000004  7.9423118400000003 36.4351279500000018
 15.1954636500000007 40.1575893600000029 28.6043458100000016
  3.2399495599999999  3.8322767999999998  9.0761088999999995
 42.1623516300000034 22.6438885399999990 25.8347376400000002
  4.4354651100000000 46.8621776199999971 12.6192455700000004
 41.6603024099999999 34.7025692599999971 46.0815940299999980
 43.3508064999999974 47.0049002000000016 11.3575959199999996
 37.1145692600000032 34.5655426499999976 43.0753924600000033
 18.1211068600000011 11.4430164500000000 22.7774851100000006
 21.1922945600000006 28.8945915999999983 31.4010388599999999
  7.2601148400000000 20.7501609400000007 47.9549869200000032
 29.4651425300000014 20.6505823299999989 24.3371835099999991
 35.0432387700000021 21.7140348500000009 47.7837179799999987
  0.9480514300000000 33.9004431800000035 14.7484863199999996
 27.8096569100000011 46.9037418899999992 11.1900087500000005
 20.4770580299999985  7.9142468600000004 14.7468964200000006
  1.0880843499999999 37.4336846799999989 47.9384382499999973
  1.3316317900000001 30.7355504900000014 22.3970164199999999
 26.6549432300000007 39.6308811800000029 26.2199902999999992
 29.3770210300000016 39.5923768600000017 29.0778648000000004
 11.6737117799999996  0.0739072700000000 42.1594577799999968
 24.0069167800000010 34.2503219299999984 45.1606840800000029
 15.6173393399999991 30.6223476400000010 19.7968664899999993
 25.9351043399999988 41.2986158599999982  5.8367348799999998
 48.0030759200000006 37.6970351800000003 24.0703529600000010
  0.4221273600000000 44.6945195500000025 30.7901226600000015
 39.5915350799999999 14.9301370900000006 30.8140853800000016
 42.3329753100000019 40.3159797599999976 40.6718467999999973
 21.7291966400000014  2.6079531500000002 31.8686564799999985
 16.5095168000000001 25.4488742600000002 19.2296259200000001
 42.3228286200000028 19.7805675500000007  1.9988754300000000
 45.0993652000000012 35.0308609799999999 13.6805309299999998
 28.6833056599999985 30.3182530399999983  8.8787727800000003
 25.5341097099999992  1.7819513100000000 49.2556830199999993
 40.2644602800000015 24.7838744499999990 42.5779541200000011
  7.6749307099999999 42.5605088399999971 14.4721372800000001
 33.2112967400000016 32.2643497600000018 16.9264891999999989
 33.5039208299999984  0.3974461000000000 29.8766002399999984
 36.0202856800000006 42.9413606099999967 15.4478512800000001
 32.0364231399999966 36.1637020699999994  3.3406098399999999
 45.6295620400000033 46.0492010199999982 48.9215598400000005
 24.6562924599999995 48.3073478299999977  1.5950189900000000
  7.4841830900000001 36.6652176699999970 32.3133012699999966
 39.6543829900000020 21.2148902300000017  8.6601595899999992
  1.3022296400000000 36.5735083100000011 40.9540946099999985
 15.4680894099999993 22.1786488400000010  6.5510816199999997
  4.0287942899999996 11.9455936699999992 19.5927331799999997
 45.0665242899999967 33.0738210499999994 21.7103976900000006
 36.6539042799999990 42.1693122000000002 39.6301083199999979
 13.2305652400000007 16.1100398100000000 11.4391297600000001
  7.4539114499999997 27.8897787999999984 43.5123585400000010
 12.2099265999999993 12.2363304300000006  6.0055549099999999
 35.3612910900000017 17.2193294200000011  5.2696264599999996
 16.6119237999999996 46.6032619100000005 11.0229324599999998
 12.4258565099999991 41.3703229199999996 11.0173805399999996
 19.1147950599999987 12.3605178000000002 43.2227119300000027
 44.1194179399999982 15.0573855999999999 19.4798373200000015
 47.6259082999999990 48.6408155399999984  6.1867894400000001
 31.3701193899999993 37.5966310700000008 36.5783534400000008
 22.3862927999999997 46.4230508300000011 32.2152898300000032
 42.3762253200000032 17.2189823000000004 49.4354595000000003
 11.7677524699999996 30.6158316200000016 10.2820901199999994
 11.0887276099999994 18.2448746499999999 41.6082234499999970
  9.4116055700000008 30.8547869000000006 26.4034328400000007
 12.4957531300000007 16.1228275500000002 26.3625778599999983
 25.8461156000000010 45.6649716000000012 41.1776677399999969
 23.0617590099999994 48.9837199700000028 19.3814982100000002
 44.8403345899999977 31.5033912600000008 27.4968606999999992
 39.7378076999999976 23.3339874400000014 24.3269298800000016
 12.7105008599999998 25.3880164000000015 46.3916444400000003
  4.3681630399999998 15.7162459200000004 42.9451349400000026
 28.8829220400000004 35.2706599400000016 43.9816894699999992
  0.2548889700000000 33.9189588899999990 25.9421460900000014
  9.6493631200000003 26.8459252399999997 49.4655753300000001
 17.9244881800000009  6.8728616499999999 12.1857400600000005
  5.7331458199999998  6.9818412199999997 43.8054166200000026
 37.6371990800000020 18.4049909099999986 32.6822055199999966
 39.8281582600000021 41.8558486000000016 21.2474217000000003
  5.4165771500000002 36.4121417500000035 28.8663110799999991
  6.0903723100000002 10.8874934799999998 36.1028783000000004
 31.0755185900000015 36.2409885399999965  2.2944640600000001
 13.0574761499999994  7.0016278700000001 26.3595860100000010
 25.5620844299999987 21.9530411600000015 14.7628307599999999
 18.8966574499999993 46.1217086500000022 17.5572995399999989
 35.5333873200000028  9.6407481500000003 32.0541807600000013
 34.6160326800000036 41.6612189700000002  0.1072118800000000
  1.9099962200000000  1.3064829899999999  8.0595651200000002
  7.1109942899999998 14.4810188400000008 32.4836376299999969
  2.4976043699999999 27.2367150600000016 17.4700967799999987
 19.9166084000000012 38.4374359099999978 17.9853445699999988
 29.6861900600000013 35.7963729800000010 29.6407025399999995
 21.2876661499999997 31.8050619400000016 47.6759631899999974
 39.9132912899999965 22.6867640699999988 46.4437740099999985
 30.5098530699999984 29.1006242099999994 44.1910311999999976
 18.6614091799999997 42.3041350199999968  5.5972347300000003
 22.7240985400000000 23.9241033399999985 42.4048996499999973
 49.1484093199999990 37.3155135399999978 11.8360154600000005
 27.9118676100000016 14.7589235900000002  3.2287235399999998
 15.1565145999999995 35.5408899000000034 35.7364704299999971
 22.8585175999999990 33.1053762900000024  2.0592234100000000
  9.3678636500000003 45.6843992000000014 17.6973151100000017
 38.7750965700000023 43.0480917399999967  9.2779038699999994
 33.7304271200000017  7.2886330299999997  0.0554063600000000
 31.2146765600000009 25.0688735300000012 32.5573843800000020
 41.9593126700000028 10.1680589000000001 44.5658580799999982
 18.3768184699999999  9.1880392799999999 23.3761649200000008
 33.2038474200000024  7.0635728100000001 17.4682265200000018
 38.4831702299999989 36.6420271000000000 42.5495465500000023
 30.2288393199999987  6.1023926199999998 12.9126937200000000
 23.6433330999999995 23.4994678599999993  5.5563813099999999
 36.1006793500000001 44.1178376800000009 38.4978188799999970
 32.8419946799999991 25.4045072400000009 23.5531201199999991
  7.2899075000000000 21.4753963900000002 36.9870455900000010
 41.2751891099999995 12.1034456699999993 22.6113860399999993
 29.5651202499999997  0.9759755100000000  3.2204153700000000
 25.5211734999999997 34.3630653700000011 40.0397294200000005
 47.7322855999999973 36.5240014600000009  8.8924728399999999
  5.7909804700000000 29.0086855499999992 48.9781203200000022
 25.2682339099999993 33.2072447899999972 14.1631976500000007
 40.8629614399999994 33.7928407500000034  6.2745142100000004
  5.7602582499999997 12.6604518000000006 34.2133702599999978
 24.1140216000000009 34.3610358600000012  5.9296729499999996
 10.0133318300000003 44.0680127299999995  1.0900042700000001
 19.7018051400000012 28.2389525200000016 12.0750419200000003
 45.2294708700000001 21.7168667900000010 45.3801739499999996
  4.5835335099999996 35.4476383800000008 18.4582853799999995
 28.4023408900000014  8.1433554899999994 15.3757479600000000
 20.1959285500000014 32.9711624999999984 46.3282053599999983
 38.1474428100000011 44.0712345499999998  5.2390879000000004
  3.3504100800000001 10.3421555200000004 20.6077938799999991
  5.1916781800000003  6.5352335799999999 37.6708387299999998
 33.7866020299999974  1.4203407299999999 21.6667207799999986
  2.5760777300000002 46.1384192599999992 48.4124301900000020
 17.7142459499999987 23.3317085700000000 36.0258526799999999
 36.5059964300000033  6.2819922400000001 31.4435308700000000
 21.4233535000000010 12.3022341900000001 13.6500736800000002
 16.7882760100000006 10.5549564399999998 47.1528894500000035
 48.6129652199999995 38.1065141400000016  6.1830740899999999
 18.9262583000000006 43.6232625900000031 26.1744220399999996
 13.5112217700000006 33.1042722299999994 33.5032932200000033
 39.8490656099999967 43.2457408799999996 31.1670312100000011
 24.2935541899999983  1.7652671600000001 18.8450901399999999
 29.4299681799999995 29.4752147200000003 39.9337754499999988
 16.9640519699999999 14.8215190099999994  5.2700192699999997
 23.2138575899999999  5.3044500799999996  1.8924700800000001
  6.7446405299999999  7.1734419599999999 14.0390075999999997
  3.6008027899999999 18.6924320699999988 13.7058554000000008
  4.3117888300000002 18.2348521699999999 23.1604952500000003
  8.4436213900000006 11.9446509800000005  3.7490312499999998
  9.9682072700000006 35.6595694299999977 30.3833318599999984
  2.6584870899999999 31.1925096099999983  2.5090437200000002
 19.4977370199999989 48.4660641700000028 19.1405871500000018
 45.8482409799999999 21.3861644400000017 37.2656886600000021
 24.4293748000000015 34.5023462899999984 30.9341672000000010
 10.5481651200000002 33.0111635800000016 18.6262382500000001
  1.1862912200000000 37.9965695300000021  8.3440298700000000
 38.1100571400000021 15.7303959199999994 30.7642349899999985
  4.4974496100000003 38.6356681999999978 49.6754341299999993
 45.0214088199999978 24.8179919399999989 15.9905940599999994
  3.9143690400000000 38.8004417900000007 19.0252396600000004
  7.2029647900000002 10.2292533799999994 23.0615218999999989
 44.9985327400000017 40.3397756999999970 40.6102728799999966
 36.8562158399999973 42.4195704199999994 45.7201294300000001
 18.2154110299999985 46.4131005300000012 14.9806488600000005
 29.7654033300000016 17.1337866100000014 17.5515060399999996
 38.1620054999999994 38.8264543599999996  6.2183573599999997
 11.9322136800000003 44.7153173399999986 30.3384702600000011
 48.6695945000000023 39.8748016400000012 25.7911691999999988
 22.1807912800000011 42.5590326299999973 39.6613727699999998
 38.6922146799999993  0.0521931800000000 27.2107720700000009
 31.4462386500000015 16.9329080999999988 41.3865078899999972
 33.0381055699999990 21.4403976800000002 48.7637844599999966
 22.9254686599999999  8.3517908399999996 18.5486317199999995
 46.8533734100000032 14.6468646200000006 19.8536583799999988
 30.4363599899999997 43.9023305600000029 16.4697783599999994
  7.5649136199999996 43.5032902499999992  9.7992116399999993
 45.3500304100000022 47.9611288299999998 32.6922138400000009
  8.0379648400000008 44.0750732300000010 19.7557628899999997
 35.1069682700000030 42.8156702699999983  2.9703048299999999
 21.9132853999999995 46.5877291999999983 49.9646028499999986
  5.0801060199999997 31.3418548500000007 12.5544089900000007
  1.9518653900000000  5.0015614399999997 11.2431074800000008
 12.9073790800000001 34.3201981099999998 19.5696110899999987
  6.4536371800000003 16.2800238300000011 18.3605288500000015
 35.4083377600000020  7.9326771200000001 24.5044174300000002
 45.7436662799999993 13.7992452399999994 23.9147968700000000
 35.9909968199999994  0.6834740800000000 37.1487847000000002
  9.6244593700000003  8.2885667000000005  5.9405635400000003
 43.0513689300000024 14.3575428100000000  7.2220422800000001
 30.8646450200000011 42.0888440200000034 37.2014121799999984
 44.1344947300000001 18.4529170700000016 38.1772168399999998
 44.4834152199999977 32.7596208499999975 40.9475688500000032
  5.7897419200000000  8.1924999199999995 41.3461065300000001
  4.0125256699999996 38.5188613999999987 36.5034906400000025
 14.1671253000000004  6.8748642699999998 45.8438236900000007
 47.1448343200000011 13.2304731800000006 14.5627666100000006
  6.4184138600000002 24.2817134900000013  2.7586975400000000
 15.4295221500000004 23.9787895300000002 11.5157048300000007
 44.4510300399999991 38.4618571900000035 28.4338019200000005
 36.9089067199999974 27.9951659600000013 14.7543354999999998
 26.1166811800000005 43.0606081999999972 19.6421005599999994
 24.7841484700000017 47.1833811099999991 11.0863635600000006
 28.5123545100000015  7.1422676400000000 40.0921519300000000
 28.7975445299999997  0.3309006100000000 11.4465620000000001
 32.3674606499999982 49.9112166199999976  7.8177845799999997
 43.5055040000000020 47.0057710999999969 25.9948630200000004
 45.6628440200000014  5.4193779199999996 33.4846222899999972
 26.0468769699999996 19.8612465600000014  7.9709602600000000
 17.9290175299999994 32.9976075200000025 40.7896721899999974
  2.0205402499999998  9.2200210400000007 10.8935535699999999
 37.9548565199999999  7.2735243499999997 46.1237685999999982
  2.1788092300000002 19.2467962499999992 30.9045423200000009
 12.6427705199999991 37.0441728899999987  1.4137785400000000
 11.3759598999999998 45.7580066000000016  4.8169824099999996
  9.0233385599999991  5.2511861800000004  6.6861358500000003
 23.8852349000000004 39.1429447100000019 25.4716615299999987
  2.2153535400000002 33.4469508999999974 42.9037781600000017
 33.7995889999999974 19.6923009200000010 18.5015819800000010
  6.0883716699999999 27.2626719100000017  3.7267893999999999
 36.1495059599999990 14.7466992300000008 47.7740082899999976
 37.7572954600000017 36.8647547599999967 35.9332688100000013
 30.4488683000000009  4.1295657900000000  5.6122072100000002
 24.3665232899999999 28.1569387900000017 33.6702348800000024
 45.6376637799999969 32.2151126300000001 39.3979004999999987
 10.5137044100000008  3.8300981799999998 22.4600490099999988
 36.0436344199999965 35.3637329700000009  8.2600271799999998
 26.2768704100000008 35.3609823299999988 12.0300552900000000
 39.1391981299999969 12.5030423800000001 38.6332900700000010
  9.7061663199999995 31.5373616699999992 48.4375419100000002
 39.7668609999999987 11.6329050899999995 14.2358642399999997
 12.1702322800000005 45.0939182899999977 43.4846458000000027
 46.4419520900000009 49.8887920299999976 30.9276246599999993
  0.5876770200000000 27.0877520899999986 13.8493980299999997
 16.8327667599999984  8.3109285499999999 31.7761202000000011
 11.2522436100000007 16.4583960400000002 16.2622305900000015
 19.3094809900000008 34.4469356700000020 49.6478793699999983
 31.9085300799999985 36.6650811100000027 30.0182184800000016
 16.1980100100000008 39.9541565399999996  9.5089730400000008
 17.3098585199999988 26.7921175900000001 45.1203897099999978
 38.3898677700000022 18.5076372599999992  7.8593469699999998