Na Cl 
 1.0000000000000000
    50.0000000000000000    0.0000000000000000    0.0000000000000000
     0.0000000000000000   50.0000000000000000    0.0000000000000000
     0.0000000000000000    0.0000000000000000   50.0000000000000000
 200 200
Cartesian
 47.1178893200000033 10.3658336700000007 18.5665398500000016
 47.8351865699999976 15.9806016199999998 35.9714416500000027
 22.0197928500000017 36.6583853200000007 17.4820722599999989
 21.1885206000000004 15.4657819399999994 33.3970325700000004
  3.9263851999999999 40.7559873499999981 35.8793799899999968
 24.7395465299999984 47.5584720299999972 15.2393242200000003
 27.3221359499999998  3.1388824099999999  5.1967014100000002
 40.9606266999999988 25.2528755099999991 25.0787165099999996
 47.9884385599999987 41.6868570700000021 31.0067547400000016
 30.5269097800000004 15.7727038099999994 41.8329272399999965
 36.0080910499999973 37.9863590400000035 36.7364050799999973
 28.7601101600000000 21.1714237599999997 28.1190692999999996
 47.1977985899999979  3.4009301100000000  9.4323915199999995
 30.2043447200000017 44.4216734199999976 45.0652339199999972
 11.3865605100000007 23.9225635600000004 16.5258357400000016
 49.7212457199999989 14.9768773300000007 16.3772907900000000
  3.1262786600000001 43.3654518100000033 43.1485179100000025
 47.1404819700000033 40.0805302600000033 33.4721076900000014
 15.7139857599999999  4.9586777800000004 40.4975009600000035
 41.4985880199999997 16.7688792199999988 34.5530234000000007
 32.6642375599999966 37.8406566499999997 37.9163351999999989
  9.8457363699999991 27.2911921299999989 33.0660795200000024
 41.5985740200000009 47.2335817700000007  4.8088842100000004
 22.9169073599999997 14.4620354100000004 13.4291725799999995
  4.1034871700000002 17.3089190200000012 11.0020262899999999
 11.0559214699999995 16.8720731800000010 18.9339751000000014
 23.3195060500000011 30.9381941500000011 28.2290412000000011
 45.4954680499999995 42.3315164600000031 15.7971388299999997
  2.5122624800000000 23.5955579299999982 20.5421567799999991
  2.0289297700000000  0.2226288400000000 41.7229667000000006
 37.9013850099999985  8.5778033899999997 17.1415193300000013
 47.5154113199999983 41.5181321100000034 45.2462928599999969
  4.4440649700000003 41.3999564200000023  9.0675629700000009
 48.5308663899999999  8.2714381199999991 18.0604838399999998
 42.5518729899999997 19.3293801400000014 18.8919558700000003
 17.1023801000000013 39.7024226600000034 28.6175790600000006
 25.6512764500000010 21.0032869200000007  2.2433117999999999
  3.3413786000000001  8.5501150500000005  1.7836465699999999
 27.7479716200000013 10.1590848800000000 43.7395915800000026
 31.3157280399999998 23.4410915899999992 24.4262955700000006
 32.7496969299999989 24.1562917000000006 44.7946182399999984
 13.1488065800000005 41.9921265400000010 11.6707780900000007
  0.7673896200000000 47.5172664299999994 22.6968219600000012
 15.4866975999999994 34.9266255400000034 11.7955130599999993
 47.1879655700000029 38.1373602399999996 24.6135133900000014
 29.3195438499999987 23.5734448900000011 48.8882292099999987
 14.4682599799999991 18.0454244199999998 39.4482651000000004
  6.9914983599999996  6.1129668300000004 40.6334955399999984
 27.1595987200000017 21.3756065699999986  9.8195923999999994
 37.8894730199999969  8.3730166399999995 25.2905866199999991
  8.8894046200000005  4.2234247299999996 33.0994996399999977
  3.2904433599999998  2.4814968899999998  6.5182978800000004
  3.0324411800000002 16.2389550000000007 28.1166312400000002
  6.2212770600000002 11.0035489399999999 36.6469749899999968
 25.7086331100000010 34.9967545299999969 40.4533759400000008
 49.8894463299999984 41.9244561100000013 24.3337969899999997
 28.1259683299999992 13.1497636700000005  8.0780545999999998
 17.8636381499999999 34.1663631799999976 34.0659152899999995
 45.8382370599999973  3.2503170400000001 28.0785619900000007
 16.3913283599999993 39.0557018499999984  9.1810322200000005
  5.6084821700000003 11.7598737199999999 48.1975769399999976
  6.6756018199999998 46.8398487400000008 37.3377958499999991
 36.3348282600000019 29.4585274400000010  9.4707459000000007
 24.8263793200000009  6.9572005700000004 29.6699567100000010
 12.9624881799999994 10.5389118499999999 27.4914234300000011
 48.3535983599999994 28.9276231700000004 36.5625856799999980
  7.3776032999999996 45.3787350799999984 30.4004438099999987
 40.2591654100000014 35.7929688299999995 22.4272040299999986
 34.0181137599999985 42.4379534799999973  4.6840565999999999
 24.9392752400000006  4.3989905199999999 33.8336304500000011
 41.8268947600000018 34.6202165300000004 11.9791901700000007
 34.2492311900000033 26.8285880500000005  8.0792821999999997
 38.4959041099999979  0.6603556000000000 48.5965519399999977
 12.2485202599999994 10.8799448800000000  9.2335194200000004
 37.7608237999999972 46.1655459600000029  4.3309189899999998
 39.7554061800000014 19.1116563600000013  9.6084410800000004
 39.0692905499999981 37.5662267599999993 25.5731819800000011
  8.4695080800000007 47.0223010699999975  3.8141450400000001
  4.3356819099999999 19.8058588799999988 27.0701211099999988
 17.5254485399999993  0.2136431600000000 40.7006496500000026
  5.8187015799999999 44.9175347099999982 29.0058453000000007
  1.2419636599999999 23.6832334799999984 44.1050484100000020
 23.5485437699999984 30.3750896499999996 14.1317512000000001
 12.3423755699999997 38.3061916300000007 12.1626919699999991
 18.3638687800000007 41.5425799499999968  6.1412445800000004
 15.8975951900000005 40.8823806300000001 10.1712221599999992
 47.7307757800000019 11.1485644100000005 23.9219762500000002
  6.6548275099999996 47.6859501599999973  7.7642588400000001
 43.8984023399999970  0.4480925600000000 31.0916955000000002
  8.1263173900000005 29.0163318100000005 27.4886688300000017
  2.0571023199999998 23.7187516800000004 41.0594070799999997
 35.4547167400000021 37.4241852600000016 38.2816793100000012
  0.1841794200000000 45.5035701400000008 28.5032978399999983
  4.9268205900000002  5.0736660899999997 23.1059072199999989
 40.9826148499999974 44.8077708499999972 34.2046063100000026
 26.8182302700000008 33.9961768100000015 23.7435674399999996
  8.1379731500000005 24.9146588700000002 40.6716757599999994
 18.8545712099999996 38.7783681700000002 48.0338142499999989
  4.3160613200000002 40.0425727699999996 45.5204876100000035
 12.8352930399999998 22.7700618199999987 46.4290116399999988
 32.3986861300000015 24.7177989599999997 32.0470703700000001
 15.1116785900000004 31.9820563000000000 22.4202209299999993
 16.6530977100000008 38.6131797399999996 21.7118876599999986
 11.6959379999999999 23.6300338900000000 49.9795357699999983
  6.0576806999999997 11.4395875300000007 15.1476237499999993
 36.1124129399999987 41.3243423600000028 38.2221139399999998
 49.0690684599999969  3.8336747299999998 32.5712607399999996
 25.1792468199999995 37.6013841400000004 16.4632784299999990
 48.3205383199999972 23.2874938600000014 42.9093522699999994
 27.4835769399999990 16.4777110600000007 40.8898531899999966
 35.7625349400000019 10.9246668000000007 10.8748925399999994
 24.3189782299999990 29.0670280699999992 29.5407942900000009
 42.1295759500000031 21.7829316300000002  5.7318338500000001
 34.9314371500000007 42.6642126599999969  7.4221806900000002
 44.5908031900000026 37.6291585999999967 33.2686381800000035
 46.0018950999999987  3.8508810599999999 21.7579527900000009
 35.9124732599999987 30.9380872800000013 26.4328894599999984
  7.5730891900000001 30.9100727000000006  5.5918624000000001
 32.4312763900000007 22.4622956299999998 23.8027355500000013
  2.5764084899999999  1.6974893400000000 29.7033482800000002
 24.1746010799999986  2.5204137900000001 10.5945865399999999
 13.2160452700000004 22.0728893900000003 29.0519224399999985
 25.6604192399999995 24.6662209600000004 15.1757147200000002
  8.2373558800000009 45.2403000500000019  3.7229971000000002
 22.4123373500000014 34.1538400999999965 23.5905841599999988
 36.9479240799999999 33.7599937999999966  4.2157314699999997
  3.7988791499999999 47.7618618899999987 33.6127144200000032
 28.8912707799999993 25.5880691200000001  8.6777506700000000
 46.9554592799999995 30.4041880300000003  3.1882613900000001
 35.1092021799999969 30.3611115200000015 29.2013640400000014
 37.3254516300000034 28.8656055599999988 44.2326402500000029
 17.9846777700000011 18.4792206000000014 30.2606413699999983
 40.5995853699999998  7.2312583699999999 35.7594495800000018
  9.0691006800000000 24.3751029599999995 22.3554444799999992
 27.9554362800000007 47.0175106100000022 23.3007625999999988
 15.9170484900000009 17.8340435799999995 36.7704652199999984
  1.2089327200000000 18.5322522499999991 21.5635739400000013
 18.9871546000000002 17.1073108500000011 22.5734988299999983
 42.7948906100000031  3.7264029999999999 29.6551847500000001
 14.6900980299999997 46.4776508500000034 49.8778253799999973
 46.6111501399999995 43.6004537600000006 42.8263335199999986
 32.1875084599999965 25.4546439900000010 16.2014715900000006
 48.1330377000000027 21.9646928899999985 10.5934597400000001
 44.2777969400000018 26.9331405500000010 15.2932749000000001
 34.0711908800000032 34.5051309999999987 27.7366380100000001
 19.6750400700000014 28.3984221000000012 42.2801536699999971
  2.5427397400000000 35.8267301400000022 39.8534541200000021
 17.0034013799999997 26.1669394400000002 37.7512507300000024
 35.2710467200000011  0.4822717700000000  5.5417206900000000
 39.6995740899999987 30.7417217100000002 26.1167576699999984
 44.3460893600000006 24.7238030799999997 32.9583190099999968
 30.4675495400000003 18.1051085100000009 42.5587088999999992
 34.2204808600000021 43.6218975499999999  3.2322031899999999
 23.6390588900000012  1.6627897100000000 46.5065728200000024
 35.9693155800000000 36.2869387200000020 24.5790600700000006
  0.2625264000000000 12.2811977100000007 10.0899292000000003
 31.4400144099999999 12.3221347199999993 48.1181816699999985
 22.2792517699999983 47.3845494899999977 42.1232765700000016
 15.9093735600000006 38.8413907199999997  7.2538471800000002
 15.4095786199999996 38.7879163400000024  8.5099940499999995
 27.4699322799999983 37.1517869400000009 10.0830185700000001
 15.2931727300000002 32.3540854700000011 25.1144123800000010
 47.9289484199999976 41.8360960600000027 39.2665338700000035
  2.6346732899999998 30.9539422799999997 42.9078492299999965
  2.2220135700000001 45.3820319599999991 35.8111381699999995
 27.7992190199999989 21.4741096700000007 15.3612220500000003
 26.0589919200000004 23.4771563500000013 30.5668551599999994
 37.1347029399999968 22.9523137300000002  9.5368914999999994
 36.5355229600000015  2.5344576499999998 46.6296657199999984
  4.7917656199999996 35.2047032799999968 35.4480951500000003
 26.1351709800000016  3.8187305199999999 31.4038965999999995
  5.2901516700000002 11.5791061499999994 10.0370317300000007
 42.3922501500000024 36.5482189399999982 15.9157196800000005
 45.5007162599999972 30.5382198799999998  5.8615169700000003
 14.5157954999999994 16.9748945700000000 47.0530487600000029
 20.5904811899999984 14.2174434000000005  2.5711952500000002
 14.0785462500000005 18.1268596899999999  8.1307649200000007
  3.7659845999999999 44.9032242199999985 38.4893870900000010
 41.1287525400000007  0.9439307000000000 14.6433363300000003
 10.5536498200000004 25.1924886299999997 10.1563249100000004
 47.3527009800000016  6.8454034899999998  0.6964416200000000
  5.0943852900000000 21.3335550000000005  3.0589251100000001
 11.3543149799999998 31.9719280499999989  2.1947329400000002
 36.8765368099999975 33.9541072199999974 16.6800196599999992
 41.0904139700000002  6.5876013400000000 17.8157166400000015
 28.7496155500000015 44.7885397599999990 10.9876867699999998
 20.0514891300000002  5.3777713399999998 34.2028334700000016
 47.0220685500000002 49.9060475499999967 20.9411726199999997
  8.2882207900000004  0.1267451300000000 30.2054467799999991
 12.9439502300000004 48.9715429499999999 14.7223333899999993
 38.2572801999999967 40.1082572500000012 49.4795690999999991
  3.1178413400000000  1.5594672000000001  9.9651518800000005
 34.3076301700000030  8.3402092799999998 23.8974365999999989
 44.2169070899999994  3.5574875100000001 40.6925638900000024
 19.9212344500000000 16.1873273600000012 10.4109846299999997
 27.4187382900000003 26.7344466999999995 25.8456881299999992
 38.4803646200000031 39.4881523199999975 27.3759839700000001
  8.1626142399999999 39.0575538300000034 40.3072853999999978
 44.5457063599999969 29.6867755799999991 45.6372496899999973
 25.2555137599999995 19.4197941900000011 38.4809424800000031
 23.8842746400000010 23.0037973399999984 24.8218421000000014
 30.7001890499999988 28.0774049599999991 46.9451486600000010
  7.1135025299999999  6.6369742199999999 47.6256919799999991
 45.0050756999999990  0.3073075300000000 14.9176936900000001
 21.6778460300000013 39.5582136199999965  4.8962840800000000
 41.8465883900000009 15.6110686600000008 25.2308939199999998
  5.6341729899999997 43.5453615799999980 16.8921083100000011
  5.6642951200000002 49.8081445899999977 25.4861676700000004
 46.0200608000000031  9.1618503699999998 33.2192011799999989
 15.1142287100000008 24.8419935900000013 19.3863187500000009
 25.8593004800000017 17.2631387200000006 41.5724897999999996
  8.8359858399999993  6.4140400900000003  0.7717575900000000
 20.9297840300000004 16.8802730799999985  6.7496853400000001
 41.9615872899999971 48.3975248200000010 17.1996010099999985
 23.6941445500000007 27.4874457499999991 31.5007521500000003
 33.1413042399999966  5.9003957099999997 17.9507131999999991
 47.6367603300000013 31.0308292700000017 35.1474612600000000
 23.3814796499999993 22.5285476899999999 37.3009872100000024
 17.6920350999999982  0.0338521300000000 18.9527834199999994
 39.4308649399999993 14.5470801099999996 42.7754258000000007
 26.5814287200000017  4.0725745499999997 47.7604828799999979
 10.4357044999999999 42.8854636100000022 25.9869207499999995
 12.1770725599999992 10.0585868900000008  4.6697960299999997
 35.2618038100000035 45.1366683399999999 11.9848669799999996
 29.6593248699999990 34.2731731599999989 29.2213635200000006
 23.4566630899999993 36.1365617399999977 47.1931997399999972
 26.1080986199999998 48.8135790199999988  9.8226126800000007
 38.6513040299999986 12.4669132099999995 31.4103436100000017
 13.6450601099999993 32.5252800600000000  2.3820236299999999
 34.6712105100000016 19.0351048100000000 23.0065541399999987
 21.1555133899999994 10.7135542299999997 12.7058639899999992
 47.4561618600000017 45.7124300500000018 38.8118737799999991
 11.1626049799999993  9.9018795199999996 20.8891414399999995
 33.8002425800000026 30.6770014999999994 38.3641303200000010
 35.9383385100000012 15.6553330699999993 19.1828592499999999
  6.3154767500000002 44.2177870700000000 18.3473688199999998
 14.2277074300000006 25.0788525100000008  0.2741297000000000
  7.2978842799999999  5.5411017999999999 29.2979380300000010
 10.4443900299999992 38.8632943599999976 25.3882565000000007
  0.4269204300000000 25.2517296599999987  5.8203696799999998
 22.9531546700000000 23.6705317499999985 30.6271307099999994
  0.1858096600000000 22.9029062799999998 29.1458082500000017
  3.5992931800000001 43.3205168900000004 37.9273634799999968
 45.1980308600000029 43.3046761399999980 21.6918906100000015
 25.6054236700000004  0.3555760500000000 26.1666516899999984
 32.9149458500000023  1.4948636500000001 24.1734213500000017
 32.6926985899999991 16.1852152400000016 24.9125302700000013
  4.8961679199999999 39.8943005799999995  3.5098163400000000
 39.4832723700000017 45.3587646800000002 44.7579891199999977
 47.5230787599999971 20.3847804199999985  7.0045217900000001
 24.9977317300000017 36.8771683599999989 44.5686205299999969
 14.8051888300000005 30.8086409799999998  0.8290225200000000
 33.3814569000000034 42.1460730200000029 49.0492806500000000
 21.2599394199999985 15.8019050300000004 32.6178910799999997
  8.8954290900000004  5.4766857099999999 46.6567124500000006
  9.3660754900000001 15.6307499199999995  6.0139559499999997
 26.5576015400000003  3.6089991000000001  6.4478792699999996
 19.5069679399999991  3.6101386000000000 25.5993961699999986
 49.0514436699999976  7.6138159500000002 15.4047194500000000
  7.1197531200000004 11.6907201100000009 35.9328271099999981
 23.0251657399999985 33.9606225899999998 26.1838391100000010
 21.7838873000000000 21.7938914799999992 39.9340433699999977
 21.4669535300000014 45.0879271800000012 42.7921441800000011
  7.5672597399999999 32.9344951699999982 30.0603239500000008
 23.8645795400000011 41.9882921499999995 47.2261056999999980
 29.1584823399999991 16.6127158600000016  9.9155247000000006
  0.2236745800000000  9.2986441499999994 32.3122181100000034
 21.4498567700000002  7.7427798200000000 32.9004678299999966
  8.1628691000000000 43.3409257300000021 30.9387361500000004
 37.3385437000000024 48.9039772900000003 29.1462853700000011
 11.6181911299999996 16.9382483800000010 31.1404845100000003
 28.1231996299999985 16.6161286500000003 17.2742023700000011
 27.5191970300000008 15.1444793299999994 33.2640718800000030
 19.2561268199999986 37.7234597599999972 18.1882421799999996
 39.7863253200000031 38.7696616799999987  1.7037968900000000
 35.7142591300000021 49.5532261199999979 41.0714082800000000
 37.1590358400000014 31.9153261999999991  0.8874185900000000
 14.8441633300000007 35.8530515300000019 32.2370199200000016
  7.5937468099999998 28.1026831500000007 21.7956907199999996
 20.1739602399999995 13.7496705000000006 40.7120904599999989
 48.1043766000000019 40.2575347499999978  8.3865889599999992
  3.4006842900000001  5.3008511900000004 41.4059839399999987
 10.3720866699999998 23.6605915399999986 13.5619306300000009
 35.3681009700000004 31.6729361099999984 27.0372109400000014
 14.4042361799999998 41.9975236300000034  2.3795717600000001
 43.4626371299999974 26.5423051900000004 46.5233345299999996
 17.6833902599999995  4.7400460600000001 15.9541313799999998
 41.0861769199999998 35.3754674500000021  5.4814019700000003
 25.9229629400000015 37.2381682899999973 11.8944734400000005
 10.4150898299999994 46.4148357300000001 44.1440486300000003
 29.0253612099999998 29.2458819599999984 35.5380923900000028
 38.7187744699999996 46.4424687200000008  8.5717573999999992
 15.5266801000000001  6.9123862999999997 26.4766145600000016
 42.4609449699999999 41.1020384600000028  1.9603877100000000
 48.2362497599999998  6.6496990399999998 11.4917975899999991
 42.6421017099999986 35.8034717800000024 48.9501800399999993
  5.6759040599999997 44.9195302299999994 12.5445768100000006
 36.7023829800000030  6.9507019600000000 20.4478865600000006
 17.6293880099999996 47.1242207299999976 16.7778459499999997
 35.2568072199999989 11.1589435500000000 48.3643119899999974
  8.9916399499999997 22.4926213600000011 33.4872072000000003
 19.4914440499999984 42.7001186800000028 10.8947309899999993
  7.7438311899999999  0.5708443500000000 44.1809387400000020
 49.0373776799999987 21.2065929199999985 19.2071728999999998
 14.9548688500000004 46.4807744399999976  2.3759364199999999
 32.3633462800000018 30.7609397099999988 49.1137562299999999
  4.9009836800000004 20.8326548699999989 34.4303459300000014
 20.8240828600000007 40.3605840099999966 40.3354964199999984
 18.6882872900000017 44.0445165799999998  6.1901947300000000
 38.6027925100000004 47.1337644099999977 27.1785012799999990
 39.0710225999999992 16.6767985400000001 36.9530698900000019
 20.2456786199999996 19.1204969399999989  8.1920614700000005
 33.9771885600000019  4.6080994700000000 48.3277486599999975
 44.4717781100000025 37.1747398700000034 45.8529770600000006
  0.9854269500000000 12.0706669600000005 21.6995577200000014
  4.4665935200000000 20.0373532800000014 17.7965929100000011
  7.3370654399999999 14.0588550199999993 37.1763133600000018
 22.2986700999999989 23.7484521099999988 40.2346300800000023
 23.4278336500000002  1.6001711100000000 44.0759152099999980
 33.9070124699999980 25.1585993300000013 40.5789972199999980
 11.2063422199999998 44.9936122100000020  7.6404883300000002
 13.6874110699999996 44.3179114699999985  1.1380683199999999
 27.5142044000000006 31.2332786800000015 37.7147161099999977
 21.2336805499999990 24.4690293099999998  0.9756038700000000
 46.9741900699999988 45.2124564399999969 35.7554215199999987
 41.3694413099999991 46.2001069399999977 35.1973930099999990
 12.5842720600000000  3.8604478599999998 32.5471873500000015
 20.5778699500000002  2.2601892499999998 37.0006973599999966
 20.7204653699999994 48.8615494699999999 16.0619117200000012
  2.5502134100000000 11.4368262099999995 18.7380366800000004
 30.1825027800000001 27.3242580400000001 38.8048210800000035
 42.6279380399999965 47.7546677899999992 12.7015704599999992
 25.2946893800000012 27.8444136200000010 31.0596389100000003
 19.3512312000000009 36.1427680999999978  1.5034405500000001
 18.3253601500000016 44.3280605300000019 21.7133950099999993
 37.0298952999999997 11.4502533199999998 44.4074810899999974
  6.5347169100000002 28.9870907200000012 36.0337677799999980
 19.5350992400000010 26.4128451099999992 20.6878070600000008
 49.9732289199999968  0.0585094100000000 33.3676447100000004
 10.0046125499999992 47.5231615300000030 21.7759175599999999
 37.8463642399999998 33.8437519000000009 11.9381177500000000
 43.9450705400000032 34.8005586499999993 42.9891731100000030
 19.0324458599999993 28.3175943600000011 33.8083264999999997
 16.5435544800000010 47.5200744999999998 19.8921765099999988
 27.8105373399999998 11.7010582500000009  9.6860510299999998
 43.4597321800000032 27.7186745200000004 17.7626716100000017
 37.2216748700000011 34.6895614100000031 27.4586211800000015
 47.0461470799999972  4.5939058099999999  9.7749264999999994
 37.1896121099999988 45.8107758299999972 41.7093645699999982
  9.2903997100000009 43.7479156500000030 21.2183396399999999
 16.6343812000000000 24.0447895500000008 20.7779341200000012
 14.7388241600000001 15.4175819199999999 23.2993334899999986
 41.8979212400000023 28.3622322000000011 34.0366486599999973
  3.9540596600000000  5.8806342999999996 35.8207330299999995
 39.0599923400000009 31.2912419799999988 11.9039862700000008
 20.2972482099999993 35.8505866200000014 40.8093081999999967
 32.0428791799999999 44.6704420700000000 26.1198737299999983
 46.7178045300000022 36.1407207000000028 17.0928515099999991
 29.5553416800000015 36.6276995200000002  1.7458605800000000
 42.6788033400000018  2.6477652800000002  0.9911400500000001
  8.0908261299999999 32.5147285999999980 25.0435399499999995
  6.7758957000000004 32.4789553299999980 23.8022875200000001
 45.0462673099999975 42.6146273900000025 24.0425983300000006
 33.9501709399999996  0.5229376700000000 39.0134609699999970
 49.2385544999999993  2.3855545299999998 44.0150467400000025
 10.8905897800000009 38.1423640900000009  8.7133295400000002
 44.9295938699999979 31.6841560599999994 15.6108390099999994
 21.3713199200000012 37.7739501799999999 16.7807211000000009
 33.5795502599999978 21.5011653100000011 20.0854068900000016
 25.4336814999999987 13.8849371900000005 14.1393120499999991
 39.4175679599999995 41.0647145900000012 24.6581082800000004
 28.8258834399999984 26.6229938600000011  2.6578165100000000
 19.9221465600000016 31.5172281500000011 10.0535100600000007
 19.3435878099999989  7.6803517599999998 33.6719692100000003
 24.7865847700000010 38.1301624399999994  3.6401497900000002
 29.9975467100000017 18.7674779299999983 25.0015686600000002
  1.3644944600000000 33.0584731800000000 13.7587453499999999
 43.2331572300000033 19.6734894400000009  2.3370037799999999
 28.0225263300000016 24.6000963800000001  3.8199316500000000
  1.5912334699999999 43.8608881500000010 19.9471760200000006
  2.1873150699999999 12.2044311000000008 19.8734336200000001
 12.7987833299999991  9.1514064000000008  7.6874348399999999
  2.7173067500000001 19.7744728400000014 49.5650066500000008
 39.0668109900000005 45.8923757299999977 13.1588772499999997
 11.2498839700000008 26.7998350899999984 24.8283727200000008
 40.4603220899999982 16.6334399799999986  8.2257406799999995
  0.0236497500000000 47.4813374399999972 18.8384316500000004
 17.5207141399999990 20.6425555799999998 39.4317086699999990
 28.7276785699999984 26.0937623999999992  7.8647139099999999
 32.2466066499999968 18.7179499900000010 42.5854123599999994
 33.0255826400000032 10.9674144600000005 29.3348079199999994
 30.1167420700000008 22.0839998999999985 15.7863537399999991
 21.2472893399999982  3.1919316900000001 46.7958620499999967
 48.0534771399999983 34.7903730700000011 21.8002590699999992
 46.9541645400000007  8.6433596300000008 18.9452187199999997
 12.2911049999999999 26.6018049699999999 46.5361013799999981
 32.2558256900000018 23.6624519900000010 44.8306237299999992
 18.2930693600000005  1.6167019300000001 21.9092847000000006
 29.3478690200000010 49.6346602400000023  9.7347335000000008
 11.6659411300000002 19.4725442099999988 25.0504869200000009
