Na Cl 
 1.0000000000000000
    50.0000000000000000    0.0000000000000000    0.0000000000000000
     0.0000000000000000   50.0000000000000000    0.0000000000000000
     0.0000000000000000    0.0000000000000000   50.0000000000000000
 Na  Cl 
 10900 10900
Cartesian
 47.7536995399999995 46.4282008599999969 18.7718032900000011
 47.6979734800000017  9.8403304899999995 36.4344800800000002
  4.3066361000000004 31.6329457699999992  4.9195758600000001
 33.3114044699999994 14.7748652400000005 21.1601706299999996
 38.9878124199999974 18.1633096499999986 20.7452971599999998
 16.2093426399999991 30.4217659800000000 48.6207874300000000
 19.5742562699999993 34.5251924100000025 14.9087565800000004
 21.4718192899999991 26.8668335300000010  0.8711203500000000
 40.9196739699999981 36.9604830800000030 44.8391293199999978
 11.2463996999999996 18.2398097399999983  6.4823702900000004
 49.1975299799999988 12.8863359600000003 30.6485278699999988
  9.8078684500000008 40.8449741700000004 31.4809361400000007
  0.0936822700000000 24.5179679399999984 23.4870985499999989
 47.6653173099999989 10.9880112400000005 25.5049032300000000
 10.9085494900000004 39.9913389700000010 34.4339928099999995
 32.1170763499999978 41.7022060299999993 38.9767990400000031
 33.0614589799999976 13.9410337299999991  6.9538418000000002
 23.2191378800000017 44.0503903399999999  4.9104512900000001
 29.9548727799999988  1.5468681200000001 48.2125572899999995
  8.4502922199999997 24.0613038099999983 48.3330761799999991
 34.0113122200000007 28.1244388000000001 37.4428798900000004
  2.4822301499999999 18.8420902300000002 29.0105408199999992
 30.1595494100000003 41.5468644999999981 28.1516681300000009
 45.0863004599999968 15.4518971300000008  0.0350498100000000
 39.0822051500000001  4.6219691699999998 31.4357657400000008
 40.9147329099999979  3.9160528200000000 17.0998103999999991
 46.5133865299999982  0.4874898100000000 43.2412753799999976
  6.1152805600000004 29.5203764799999995 48.9675456699999998
 47.5399970300000021  4.7300804400000001 48.4620028599999983
  0.8821250200000000 25.8751715400000002 34.0081082299999977
 24.2751051099999984 41.6915608300000002 10.0628672199999993
 26.6093909400000008 24.0335263899999987 31.4780189800000016
  1.0650007300000000 49.4672556599999993 46.1659416500000006
 10.9813762599999993 13.9908808300000000 44.7341915900000018
 47.5580430300000003  8.0292815399999995 48.1348090600000020
  1.7358102399999999 23.7626669300000017 29.1431607300000017
  9.1024707599999992 35.2260289199999974 43.8680236200000024
 39.8729800899999987 45.1763692500000005 29.2380222500000002
  3.4399362099999999 15.0078212200000003 36.4512676299999967
 36.4550742699999972  0.4332950600000000 32.3900289999999984
 29.2173767399999988  6.4508113600000003 18.7864846199999995
 44.4469608599999972 20.0711294199999983 35.4721128600000029
 29.8009054199999994 13.8173528999999995 28.2502092599999983
  1.2669531599999999 43.6818179200000003 10.3137467600000008
 43.1417452399999988 33.3122021900000007 28.1822184200000017
  8.5450386900000002 16.4652647300000012 31.7043077099999984
  4.2997079500000002 15.1914412900000002 22.5538030099999993
 11.7672545399999997 22.2470949699999991  6.9252286400000003
 42.3177044600000016 33.6588088999999968  3.6012586199999999
 26.3536649400000016 26.0466687499999985 16.3616855500000007
 40.8489920399999988 49.0091980199999995 47.5911179499999974
 13.9194633400000001 44.4203736500000019 23.2198807299999999
  6.5354058999999998 40.5669866799999994  9.3451044099999994
 13.1698190099999994 45.1480390500000013  3.0922820999999998
 21.9853199699999990  7.2726603599999997 31.6027230699999997
 46.9666884000000024 19.1319955800000017  1.4497715499999999
 16.3104759799999997 30.1698597500000005 14.8328541800000000
 45.7802824199999989 29.2066173499999984 25.6178537999999989
  9.2687638799999998 30.1144512999999989 33.5829589700000000
 28.7913622499999988 46.4252830900000006 19.7329474699999992
  1.6481366200000001  0.2322547400000000  3.5053675300000000
 14.7120970599999996 16.2152919100000013 30.4110683199999983
 18.8252151099999985 45.3903539100000017 25.6781398000000003
 22.4955725800000010 33.0883876600000022 16.5313589900000011
 42.5505941500000020 47.8358222399999988 26.6643782999999992
 48.2060358900000026 48.8451212900000016 39.9534740200000016
 48.0378636100000023 22.3737770800000000 36.0713763299999997
  1.6220295100000000 11.4499927600000007 40.0282361699999996
  4.5653613999999996 30.0290564899999985 48.3524500199999991
  9.6274052599999997  7.8001352300000004 46.8728042400000007
 41.2209052600000021 49.7546235300000035 25.9577210200000010
 21.4171531000000002  8.0921709100000001  5.1165003799999997
 43.0219185999999993 19.3858627299999995 18.1949370600000009
  2.3072101200000001 27.2804642000000008  2.7617932100000000
 17.4584423499999986 24.0405864899999990  0.1371251900000000
  4.6630439399999997 21.7794495499999989 47.2085924300000030
 34.8130390000000034  2.7464348599999999  9.3306967099999998
 21.0196062099999992 26.5215530400000006 47.7419711200000023
 49.3085688700000020 29.1169566199999998 18.6899760599999993
 22.4276273400000008 41.1326747299999980 16.8642650200000013
 37.7021979900000019 10.8417002500000006 16.4561600500000011
 28.6819619999999986  7.7352645400000002  6.5910856700000000
 26.3769159399999999 16.8262861999999984 49.3921301999999969
 33.5323105699999999 27.5437875500000011 28.4374305900000017
 47.8958891699999967 36.2092715900000002 19.2275402900000003
  7.2696946599999999 31.7581425300000006  9.1015622100000009
 19.9559998599999986  0.4895774900000000 28.3288453599999990
 22.9039734099999990 47.0811073699999980 42.1714914699999994
 26.2571251399999994  3.5021858500000000 11.2376464600000006
 21.1240249099999993 31.4866385300000005 45.9338349499999978
  9.9640115199999997 15.1416344899999995 35.4508254799999989
 22.0239131800000010  5.9088397600000002  9.8697888500000008
 31.5411650299999984 12.3605867899999993 44.3821885400000014
 31.4427313499999990  7.9858688000000004 18.4968817799999989
 27.0921309100000016 37.4442700500000001 25.8466816199999982
  5.1779234299999999 25.3591557600000002 11.3308870800000001
 38.2190729200000021 47.9585726999999977 39.7313163800000027
 14.2343999700000001 37.5602141399999994 24.5191021000000013
 42.5490035199999994 21.1021187999999995 13.3107494600000003
 13.7662159800000001 18.7919905699999994 36.9855596599999998
 16.3012448100000000 25.0214808300000016 36.0282616900000008
 26.9941525200000001 40.7213932800000009  4.4568424400000000
  6.1508330800000000 27.0515385700000017  5.2087047899999996
 42.7013384099999982 31.3947313100000009  1.2492039900000000
 45.3715359099999986  9.4039924300000006  2.9006932399999998
  1.9513014000000000 45.5226543100000001 49.2509978799999999
 11.5214025699999993 40.2129190200000011  8.5300193400000008
 14.0351159100000000 38.1930956599999973 11.3586937799999994
  5.5664087400000000  4.6317583899999999 45.9632655799999981
  4.6046361800000000 40.1203012499999971  1.9031315400000000
 35.9317126400000006  4.2943161900000000 24.5722595499999983
 35.9662297300000020 34.4231549100000009 49.9645929300000020
  4.9134043500000004 29.5869673999999989 18.1610462300000002
 32.7040554200000031  7.0594045599999999 47.4124386900000019
 10.8570537100000006 24.5017288099999995  0.5561667700000000
 47.4949536399999985 47.6857733000000010  4.7918038000000003
 35.8464655599999986 21.5467228900000016 35.7715909799999991
 13.1295482499999991 18.3173643999999989  9.9434305700000003
 19.2376357400000018 26.9438149299999985 44.6975287499999965
 31.3656860900000005 13.0860738500000000 37.6432258299999987
 19.6966010900000015 40.7745802299999980 48.3698691499999995
  2.3907480500000000 31.3025430900000003  1.8417505100000000
  4.3008053000000004 33.6346717699999971 47.9284517899999969
 33.4892732499999966  4.2154791800000000 49.5585522800000007
 30.5882459199999985 46.6491491499999995 32.2497946599999992
 22.2988392100000006 26.5905981099999984  8.1823942800000005
 21.5005887800000011 10.3955791099999999 18.4981814399999998
 48.9355275200000008  9.4109776200000006 20.3009279499999984
 47.6961217799999986 28.7187731299999989 26.4199287799999993
 39.7429275499999974  9.3833521799999993  6.0000063600000004
 42.1069708200000008 41.8584883400000010 15.6135437600000007
 16.8300031300000015 11.8626009499999991 24.7341587300000008
  7.0058144200000001 46.7229501600000035 22.6232749700000006
 29.3825017200000005 31.7063951300000006 39.3829734199999990
  9.6343506600000008 24.5316066900000003  2.7136277899999999
  7.9422425099999998 35.2697815699999992 29.2188091300000004
 30.5251145199999989 35.5997023999999982 24.1982988900000002
  0.8094325400000000  4.1327545700000003  9.2060099399999995
 25.4090594699999990  0.0625320500000000  0.9761268700000000
  5.7643766999999997 31.8792094400000003 43.8730448700000011
 24.2651111300000011 23.7228064200000013  9.2075174000000004
  0.7449733600000000 20.7671985100000001 34.3054027499999989
 20.9039458899999993 32.6185219799999970 19.4989854800000018
 19.4489514800000016 28.5274883899999985 11.4973119700000002
 35.3223577999999989 12.8675525600000000 14.9558797299999995
 13.4706481399999998  1.1833270100000000 38.1770333699999966
 41.3998257300000034  6.8710924400000000 32.4506240099999985
 47.6377640799999966 47.9009595200000007 21.4266932700000012
 18.4337371599999997 15.8204152800000006 43.7195910100000020
 45.1661246099999971  7.0563332699999997 45.7932289199999971
 46.7984660500000018 41.8189253600000015  0.6785590700000000
  4.5422397999999999 41.4243870600000008 19.6733303500000005
 49.6631247199999990 38.1372072200000005 22.0417684499999993
  6.0023600000000004 31.6645715999999986 36.4548791599999973
 47.1540463400000007 18.0567970100000004 30.5873770200000017
 32.0455354300000010 39.3140089199999991  0.5478893900000000
  8.3769355500000007 41.1557450399999993  4.6068598800000000
 27.4939536900000014 40.8797410000000028 15.8070566899999996
 19.2017968400000001 24.5994357500000014 42.7166615800000002
 38.9311947599999968 16.5902900600000009 33.0050162200000017
 15.3075984300000005 24.8067874300000000 27.6764101199999999
  7.4249622400000002 41.3404460000000000  8.8759635800000005
 28.3199718800000007 23.7674200300000003  9.0284770400000003
 41.6136056799999992 49.8707380600000008 27.4945926500000013
  1.6186935800000000  5.3830573399999997 23.0446467499999983
 11.3779545100000004 29.2814766900000016 33.7787148500000001
 18.8604287699999986 37.2262670799999995 11.8708671399999997
 13.6639526399999998  0.0520378400000000 24.5998952899999992
  0.4401140800000000 46.9974238400000033 35.7024982300000033
  1.8877048800000000 26.6558386300000016  4.6798153100000004
  3.6559213900000000 45.0708037500000032  4.9985458600000001
 10.5603227900000007 37.3451427500000008  9.8141952900000007
 47.1802880299999998  9.1008797099999992  8.4852817500000004
 12.1303854599999994 25.3883702100000015  2.3381198099999998
 46.7795942199999999 24.6400496999999987 25.3153703800000009
 25.4299077999999987  0.4604320300000000 38.4810892300000020
  1.6667655200000000 13.3281135499999994  5.6044819300000004
 44.5278399099999973 29.4054224799999986 16.9355514999999990
 35.8140669499999973 27.0231684799999989 28.3926361100000015
 45.0351677100000032  6.0637244499999996 13.0168601899999992
 24.3692656899999989 24.2483839500000009 42.5890570199999985
 44.2814008799999996 37.5045428000000030 38.8508301199999977
 15.9017871199999998 11.3361393400000008 26.4938657500000012
 32.4017076900000021 25.5011524899999991 47.8698843399999987
 49.1460716099999999 48.0255745799999971 15.8319791399999996
 38.0733840999999984 49.3666414899999992  5.1434669700000004
 46.2493103199999993 12.1585699300000005 49.0848481000000021
 19.0419366399999994 37.8291741399999992 44.9298088199999981
 35.2968081100000006 33.4538458999999975  8.7880451500000003
  0.6748460500000000 42.1375105600000026  5.1399593000000001
 37.2960099200000030 34.0387133099999986 38.6546156799999991
 18.1257034700000013 38.6982813699999966  2.0149145300000000
 14.6684800600000003 33.1443277600000030  6.7166199899999999
 36.2322373700000000  5.2135065699999998 23.4049016300000012
 16.1816166099999990 14.4303486299999992 30.8693975400000014
 21.9643773600000003  5.2903119299999997 14.2725511300000001
 28.7668211999999990 33.9638835700000001 30.9911203899999990
 17.7604750799999991  0.3046910700000000 20.9428900999999996
 37.1538272100000029 44.3738641699999974 41.5350326100000018
 29.2930168900000005 27.7349283799999995 40.9413079699999969
  0.5630332700000000 12.9002468300000004 14.4483959800000008
 34.1912950999999978  3.0967691700000000 47.3994315099999994
 42.2454291000000026 18.9268621900000014  3.7728895699999998
 10.9549754999999998 20.2733103999999997 33.5278571500000027
  2.6951311900000001 47.0698551999999992  3.0562786399999999
 16.8751018899999998 19.8374634000000007  8.2473680199999997
 13.5142828599999998 34.5520845100000003 16.8843205400000009
 24.7753129899999998 48.6854594699999979  6.5172457200000000
 35.3487598399999996  6.6066455099999999 37.8911315599999980
 36.2481960300000026 23.4306161400000015 48.3654666700000035
 28.3982964799999991 40.1689905599999975 20.2243881200000004
 11.2910680299999999 18.9803677700000009  3.0411094400000001
 11.9264274399999994 47.4660268700000003 11.5136714900000001
 10.2767973500000007 22.1330406500000016 40.0141711999999998
 18.1753563800000002 23.2146438599999989 18.5192745700000003
  3.4477498199999999 46.3311668500000025 37.9211947000000009
 41.5193780500000003 16.1869177700000009  3.5269102299999999
 26.7802875600000014 46.2930439499999977 47.1896482599999985
 16.4183368799999982 42.9878581299999993 46.9315617099999969
 28.7576568700000017 29.9389799500000002 34.4360158499999969
 16.1183462800000008  1.0459046100000000 28.5188092500000003
 15.6270938099999999 44.5656090299999974 14.1908848699999997
  6.2020509099999996 37.8695889099999974 24.1807881599999988
  6.5066429100000001  7.1474189399999997 26.6701879099999992
 45.8482100800000012 20.8668848400000009  9.7334453599999993
 40.0162471599999989  3.0660931699999998 31.8279649000000013
 32.6061522500000009 11.6008777500000004 25.9522740399999989
 29.8697639600000002 21.1229238499999994 12.9811884200000005
 24.8337704300000013 31.1796813600000000 36.9047014900000008
  7.3179644100000001 43.0278404100000031 18.9138005999999983
 34.2467537100000001 35.1895643599999985 31.0081346999999994
  3.7199637600000002 21.4309766800000006 40.4249861099999990
 22.7415395999999994 17.0560681299999999 11.3371290600000005
 43.1280309799999984  2.8166271799999998 39.0529458099999971
 12.8602744399999995 42.6324674399999992 23.8801963000000015
  4.4592814100000000 47.1426160299999992 25.9476066199999984
  1.4244996000000001 41.5648072700000029 29.7157631600000016
 32.8314753200000027 48.6056517099999965 15.1882977799999992
 19.7207233700000018 46.1977258800000001 45.1788190700000030
 20.4121595999999990 17.1664679999999983 16.8276231799999998
 21.8628102999999996 48.2527378200000001 33.7646078200000019
 31.7637025999999985  2.5495851200000001  0.8770974800000000
 41.3773845099999988 29.7015311299999993 43.6337603200000004
  2.6097427099999999 11.9457848700000007 22.8062404000000001
  4.4823358799999999 34.6191143300000022 43.4545654499999969
 40.8815857199999968 46.8112185100000033  6.1495259899999999
  5.0833113699999997 35.2142763299999970 46.3422030699999965
 23.4069287899999985  0.2521499100000000 37.8834722699999986
  7.5185091699999997 13.5836797100000002  0.9049383200000000
  9.2983931999999996 28.0945877199999998 35.7358264200000022
 12.0346489200000004 16.3443742900000011 49.8986276799999970
 46.2354135200000016 28.5950581700000015 47.1426233600000018
 26.0708719400000000 23.1446628600000004 42.3486318400000030
  3.4553409600000000 23.9154645600000002 47.2128363799999988
  6.1410031500000004 11.8400140500000006 45.1161177999999978
 16.5919301399999988 10.5698800700000000 47.9743280699999985
  4.5318244500000002 16.3735511100000011 40.2734897799999985
 26.5426528499999996  2.3665018199999999 23.7960179399999987
 39.6735968699999972 44.1426254300000025  5.1056288399999996
 10.3039799999999993 28.9918677100000011 16.3205768300000003
 49.9347659100000030  3.6105828600000001 33.0661437600000028
 42.6782216599999984 42.8714561199999977 40.5630810099999977
 43.7026061999999982  9.7024364199999997 18.8489265400000008
 43.9082939600000017 16.6966110100000016 19.9412114500000008
  1.9409164999999999 20.9836629099999996 22.4225018700000014
  4.9890022500000004  0.1608414100000000  3.2615955900000002
 17.6371386399999999 27.3890499200000015 27.7619266499999995
 44.7012841199999968 44.4822236199999992 12.7323332300000001
 42.3245999000000026 49.5505109400000023 45.4374144100000024
 16.6239306599999992 48.4026714000000027  3.6981993399999999
  5.6362604500000000 28.6294097000000001 24.4887964899999986
 33.2026310199999983 36.6195310299999974 14.4580389399999998
 46.2605323599999991  0.7674166700000000 47.9719784799999971
 15.0423130799999996 16.1559171399999997 32.4992902999999984
 15.5720067100000001 18.7166912299999986 21.4295623000000006
 16.6535634399999992 46.4407229500000014 29.2306990499999984
 30.3589313700000005 42.5594771199999968 47.1320335500000027
 48.0878867400000019 13.1124944499999998 31.6941996000000010
 34.4127104299999971 24.4242175800000005 47.8249154299999972
 43.3535922299999967 43.8245890199999977  9.8676047800000006
 44.8335366100000030 17.2497483100000011 16.5197632799999994
 47.6614774000000025 46.4505963699999995 45.1732064600000029
 26.0809309200000001 42.2059784100000002  5.8792064499999999
 11.8227369699999993  4.7402089500000004 18.6917953499999996
  3.0044694000000001 46.1171712700000000 41.2975488000000013
 37.9026097200000009 29.1615458600000004 18.1012252700000005
 27.2930503699999996 14.2975973700000001 49.7190487299999972
 28.0520671600000000 21.0928313299999992  7.2161624900000003
 32.0430369700000028 47.3224072900000010 47.6993860400000003
 33.5812303200000031 49.7379229599999988 45.2712486200000015
 23.8756289600000002 27.6959038000000000 35.0551714099999998
 22.2659210799999983 23.3355548299999995  0.6700974900000000
 12.3285013499999998  5.1222587700000002 39.8031921800000035
 22.2509305300000015 21.3894669499999992 42.7710820900000002
  3.5766649500000001 13.0078856900000002 23.5347815000000011
 49.0726159600000003 13.4565210299999993 13.7488930099999997
 27.6447930299999989 26.0364033600000013 43.8313318200000026
 23.1938229699999994 18.5827390600000015 20.0953985000000017
 43.3625214200000002 43.8975674799999993 36.4165864400000032
  3.5682230300000000 21.1244200199999987 38.1273128500000027
  5.7470744299999996 41.0798940099999967 29.7785715300000007
 38.4517697100000007  8.8935125700000004 23.2656977500000011
 26.5820516200000014 14.5415173899999992 49.2827925799999988
 45.8949386800000028  6.2344310099999998 32.0820451399999982
  2.9326643300000002 39.2894661899999988 38.0583149300000017
 46.0990711600000012 37.0889235900000003  3.5388212900000000
 26.9694215700000015 25.0684003699999991 24.6050105799999983
 36.4127804000000026 39.6001765199999980 10.1668106700000003
 23.5868839699999988 24.7588113099999987 21.3416293800000005
 38.7650375199999999 23.9856022300000014 26.0166610499999997
 12.0222327799999995  7.6663688600000004 48.6613617699999992
  1.5073323599999999 33.7350238699999991 34.5462458599999991
 18.7541722200000009  1.3724587200000000 16.9136492599999997
 17.7031367400000015 36.6191911000000019  8.7447893800000003
 23.6751878500000004  8.8822142999999993 33.3756743599999979
 44.9590022000000005 25.9498976299999988 39.9294537199999979
 44.3286928300000014 32.3404305099999974 45.6155254999999968
 10.1369958400000009 22.4891133500000002 24.5280370199999993
 42.7182463199999987 15.5658946199999999 15.9908988799999996
  9.0375103600000006 43.4365603099999973 38.2691485300000025
 39.5793218800000020  9.6628633799999992  3.7448922699999998
 40.4043067400000027 25.1834377099999998  8.0375335200000002
 36.8258987000000033 32.8794952900000013  5.6772851199999996
 18.1309761800000011 27.3166518099999998 10.9669490100000004
 21.5119605299999996  1.5206035700000000  6.7841998600000002
 22.0469896600000013 43.7551340099999990 42.5372374399999984
 23.3497248599999985 38.8257314199999968 44.0679190899999966
 49.5161214099999967 17.4526095499999983 26.0086590999999991
 27.5335121100000002  5.7380272799999998 39.0244962100000023
 34.7078532100000032 34.8889712900000006 28.9404246399999998
  1.7169116799999999  6.1345576800000003  3.5109326300000001
  8.2446447599999999 17.7445014800000003 31.8363550500000017
 23.6193256600000012 20.0063048700000010 45.9659874900000034
  0.3517211000000000 11.3764450900000007  3.9126920500000000
 10.6153381800000002 11.9887996799999996 45.7561438199999984
 23.5091574600000008 18.4094294500000011  7.2808093899999999
 18.5634024800000006 45.1054150000000007 36.7098764500000030
 32.8934187199999997 39.6884652000000031 44.0346826999999976
 40.9121460699999986 10.4390063099999999 48.3791174799999979
  7.8275286900000003  7.2746286700000002 14.6840033000000005
 44.0433907500000004 37.2683817699999977 19.6923987800000013
 20.1462934800000006 48.7545499599999985 17.7211311999999985
 39.0520131199999980 47.1844481299999998 29.0197060799999988
 34.2001057599999996  1.1775453300000001 41.0044413299999988
 11.6453507700000003 23.4104528000000016  9.4801558700000008
 32.9796927200000027 39.6955506400000004 13.1195433999999995
  0.1658642700000000 37.6807276099999982 49.9889448999999999
 14.1969066399999999  7.4099189399999998 38.5076304800000031
 47.7455515600000027  9.4851307800000004 16.5931000200000014
 30.2320675600000008 10.3594801400000005 11.7827750299999998
 33.0999823900000010 11.4040403700000006 17.7064649100000011
 42.5558174700000009 35.6242062199999978 36.0339801900000012
 23.1050975700000016 27.3749066200000009 40.0555263199999985
 13.2309058000000004 21.8338549700000009 11.6004882699999996
 19.4062987900000010 11.6637610200000008 32.8314399300000019
 48.0108476500000023 18.3163988999999994 43.7162365499999979
 38.7876996999999974  4.8687757500000002 29.5139986699999994
 41.7756357000000023 23.1091411899999990 45.3359667200000018
 11.5926463200000001 37.6067185899999998  6.1194254299999997
 49.1832805800000017 23.3966974000000008 28.2931211299999994
 22.4868376599999991 36.2805704499999990 17.5475906700000017
 22.3563274900000017 42.7961889899999974 25.5482770899999991
 39.8929749300000012 31.2297083399999984 27.7079864100000002
 38.1275398599999988  9.5624294400000007 15.7516137999999994
 37.3731416099999976 30.3910823900000011 32.9217510000000004
 15.8690326899999992 10.8324561799999994 11.0909907000000008
  6.2806379300000001  8.6817098399999999 13.4972073199999993
 47.5634282700000028 48.5388941100000011 43.1933483299999992
  0.6053991399999999 24.9433220499999990 22.4136612500000005
  6.4045992199999997 42.0991645900000009 10.6591906699999992
 49.0175587600000000 38.1100561399999975 15.7135692299999992
 47.9579904799999994 29.9460069000000004  2.5378845600000002
  4.2258736900000002 24.2591582099999989 23.6720670800000015
  6.4314527899999998 43.4270964899999967 29.2107155200000008
 44.4957730599999977 40.4577648499999967 23.6537592399999994
 48.7314842600000020 30.0560174000000018  1.4843600299999999
 47.6390971100000016 20.3051154800000013 18.0759213000000010
  2.0093187700000001 20.6205659399999988 19.8517689600000011
 48.6808667199999974 29.3269396700000016 47.8749720100000005
 34.6546342299999992 40.4374903699999990 32.9006854100000012
 11.8197401299999996  4.3724356200000001 37.5255317800000014
 41.6126849300000003 34.3956581200000002 37.8260971699999970
 43.2151173399999990 16.4772050999999990 32.3861116699999982
 13.3788279800000005  7.9618357900000003 14.5740511200000000
 46.0771680300000028 18.9631232800000014 13.2130464399999994
 21.6714626700000004 32.2731698500000022 15.1657493399999996
 40.7491405499999999 20.8051422200000005 22.0253623000000012
 30.2641095699999987 48.8896009699999965 37.5235698600000021
  8.6386259699999997 39.3866533400000023 21.4826250499999993
  8.4792974700000006 11.5525401500000005 13.5422741599999998
  5.0017931100000004 15.1367261800000001  2.9569803100000001
 47.9679901399999977 48.0102430100000035  8.1542497300000001
 48.4752220600000001 23.0570955499999997 20.6049797499999983
  7.8945808399999997 34.2201479900000010 38.0272174899999982
 23.4443490499999996 29.1744877699999989 35.6159842300000022
 47.8469087300000027 12.9949689399999997  6.4430377900000000
 38.1362067499999995  5.2268141000000004 47.0645344100000003
 13.6298355699999991 26.6464416300000018 46.7444662899999983
 34.2449711100000016  5.2294401900000000 41.2013438500000007
 20.9860689600000008 12.8609605200000008  4.1634485799999998
 25.0803570399999991 25.5607374599999986 49.3144854399999986
 28.5568478399999996  4.9416760899999996  4.7501068799999997
 35.0463610999999986 24.1910146899999994 28.3838861300000005
 47.9741674599999968  1.8325096900000000 48.9904205300000015
 31.9978647100000018 38.1121524599999972  0.9463183600000000
  4.7726533900000003 13.9854645000000009  3.7017775500000001
 15.7752558000000001 34.7241700100000017  9.1253414599999996
 19.6138505899999984 49.9868917499999981 29.6896619400000006
 44.1482169100000021 49.0815403599999982 13.4488878799999991
 35.4586567899999991  3.6446608399999998  5.8147162699999999
 27.9363360400000005 25.9998008300000016 28.6524896899999995
 12.3941798300000006  8.9803800999999996 33.2482734399999984
  3.7316795900000002 18.3389053799999999 21.9826635099999983
 12.6255716499999995 47.9827027500000014 45.2851623999999973
  7.7244118799999999 24.1905063499999997 19.8402301299999984
  4.7477409699999997 45.2825354900000008 13.5739063000000009
 36.6431437099999968 11.3163973999999996 44.6910278100000014
 22.1044840899999997 10.0640329600000005 46.2019237399999980
 15.7323639899999996 13.8416020300000007 35.8052578900000000
 28.9693932899999993 38.5929953999999995 32.4736076100000020
 33.9230889800000028 45.3565629599999980  7.7537412999999997
 17.1300696499999994  5.0806439699999997 40.3832679300000024
 21.5841613800000012 15.0003311999999998 10.5664660000000001
 40.5941278900000029 15.5073846100000008 32.6130798900000016
 28.0337732200000005 13.6264799199999995 20.2480594700000012
  9.1355490100000001 41.1721692599999969 30.6487734299999985
 13.9351042799999991  7.2975514700000002 49.9475956900000000
 19.2407521000000017 29.3206172400000007 41.6140086699999969
  6.6436780200000003 10.2964517499999992  2.4645211699999998
 21.2072238900000016 29.8119032399999995 48.6578028400000022
 41.6923487099999974 23.3046926899999995 31.9700397699999996
 20.4584142799999995 44.5687268599999982 16.5923402499999995
 17.4625634800000000 43.3043457500000031 16.1390816199999989
 49.5447360900000007 48.3794786699999975 13.8980519999999999
 34.5600019099999969 49.9521638699999997 46.0182171800000006
 28.1760805199999993  5.3852741599999998 10.3028602500000002
 10.1721888699999994 13.9783183599999994 33.5967496199999971
 10.5708531400000005 14.3287005900000004 22.4708178200000006
 17.0350759600000004  8.5216636099999992 23.6003111899999993
  0.4302123100000000 30.5782905499999984 29.3292007499999983
 35.8770819100000011 36.1156315899999996 45.4202066900000005
 27.4137595099999984 43.0560805300000027 43.5455296200000035
 19.7162536499999987 21.0751465899999992  9.9886586699999995
 29.3862722500000011 45.0776809799999967 20.5842368600000007
  9.2689621800000008 33.4473106499999986 48.9500397300000003
  3.3178190000000001 12.5839626899999999 48.6609994399999977
 45.4176344400000005 34.1820696799999979 48.0450458999999981
 43.0865225800000005  5.1850283099999999 44.7707673700000015
 12.2872602499999992 11.9829958600000008 48.2114079199999992
 39.1328562899999994  5.9157194400000002 25.4965682899999990
 20.8231921600000014 25.3906962100000015 41.4312255800000031
 34.6082587399999966 11.0046800000000005  5.6568345999999998
 24.4191434600000008 12.5441001599999993 28.6913114000000000
 14.8707586200000001 32.8400877199999996 43.3543511600000002
  6.5800056400000004 40.1547205099999971 30.3876500699999994
 25.2347571399999993 20.5632976399999983  7.3433549200000003
 19.7661027400000009  8.8887584400000001 43.3631634300000002
  4.6877827700000001 37.5650994200000028  6.6259333199999997
 12.0613028799999995 14.3175330100000000 34.7772649699999974
  1.4922689200000001 30.5637178899999995 34.4064966500000011
 19.9891461899999996  7.5799330200000004 45.9342217100000028
 16.4642025099999998 13.8515767899999993  3.4511745700000001
  3.8909821999999998 45.7378724300000030 16.4219936400000002
  4.4471619699999998 43.4511817699999980 34.0120561299999977
 40.6274550099999985 25.6363279999999989 19.7647028200000001
 35.3603445399999998  1.3106686299999999 28.4076678499999993
 47.6734979499999980 48.4801011200000005  5.0594447400000000
 34.0878074000000026 13.7789437400000008 32.7074023099999991
 13.3106509800000001 12.1109388800000009 48.5497982899999982
 26.4599154100000007 11.7983429999999991 44.7507681499999990
 26.1603532899999998 27.0578231600000016 10.8337756299999999
 33.2670079900000033 18.6033415899999994 16.3621494600000013
 48.6460124099999973 43.5306356500000007 19.3933547600000011
 44.1133920799999970 13.7806455200000002 11.3092600900000004
 24.7343095800000015  9.5411667399999995  8.3894191300000003
  0.9674000600000000  9.0927383200000005 21.6529547999999998
 21.2113844100000009 49.7377733499999977 42.7566361800000010
 10.7842985599999999  1.7058825399999999 20.7677844100000009
 44.1525405499999977 21.7489876200000012 35.2349077699999995
 43.0949715599999976 47.1870634699999982 22.9757263899999984
  3.0334330399999998 32.9091215199999994  3.6053761899999999
 45.5575524799999982 35.7845458800000031 30.8626629100000009
  8.7755119500000003 40.0292913799999965 22.3003054600000006
  1.2338783099999999 37.7928100700000016 33.7588503899999992
 34.9984730799999966 19.3369830100000009 46.6734780900000032
 41.1462829900000031 45.5781670699999992 32.2539998100000034
 42.9748668100000017 28.5864249699999995  2.0444765199999999