Na Cl 
 1.0000000000000000
    35.0000000000000000    0.0000000000000000    0.0000000000000000
     0.0000000000000000   35.0000000000000000    0.0000000000000000
     0.0000000000000000    0.0000000000000000   35.0000000000000000
 2500 2500
Cartesian
  2.2192860599999999 24.5408349600000015 17.8130919100000007
 29.6356591099999989  1.5226477500000000  6.1407086900000003
 26.8908920500000015  0.2227186500000000 33.2323602800000018
  6.2792063000000002  9.6202419199999998 22.4059620899999992
 12.0048186399999999 24.9868073399999986 23.2709759799999993
 25.2933601900000014 30.5047860700000015 13.9394741199999999
 25.7415310899999987  2.9129551500000002 28.0371350700000015
 15.1291093199999995 34.9403148199999976 11.8712424900000002
 19.9725932399999984 29.3746153399999983 24.1599836500000009
 21.8452042800000008  2.3483208599999998 23.2286176399999995
 13.3767199699999999 17.5324882600000009  3.5301500600000000
  6.2320168899999997 21.5079163800000011  3.5506605400000000
  0.9516903200000000  0.0591361700000000 13.9016638100000005
 20.2636306700000013 20.8406497699999989 23.8007318999999988
  3.9010677100000000 10.2449779799999998 22.3449808800000014
  2.0937102099999998 13.9874405199999998 26.9128581099999984
 19.4061744999999988 29.5748247999999982 29.0804066299999988
 14.3943005700000004  5.0096872100000001 22.8128988700000015
 26.3912768600000014  3.1902619400000001 33.7324193500000007
 10.7719538499999992 24.2282856200000012 14.7964638999999991
  9.1687776599999999 29.6461877399999985  3.4774045500000001
 29.7382708499999993 11.1180943100000000 31.8110170699999983
 22.7639560400000001  8.8092274600000007  6.6859745899999998
 21.1748849600000000  6.2915328500000003  6.7925321700000003
 27.0881671299999987 25.8249626899999996  5.1479608800000003
  1.7785477599999999  2.0522022500000001 16.3632767000000001
 22.5915783999999995 16.6582164000000006  9.6429785500000005
 19.5404937899999993 12.0791024700000005 13.4751760199999993
 27.2833415600000002 16.1215549699999983 19.9744020300000003
 24.7748553800000018 30.9942907400000003 16.0443927200000012
 18.1085057300000010 24.6557510399999984 24.2077456899999994
 19.5818117500000000  6.5101467599999996  6.0365822500000004
 26.8378706999999999 19.0928271100000018 13.1452868899999995
 12.8368275500000006  8.5606095000000000 28.1637913399999995
  8.8411283100000002 17.8435315800000005 16.2352041900000010
  5.0767530000000001 29.9876525399999991  2.4763057700000002
  4.2711073300000004 34.5008893899999975 11.4479231000000006
 10.2434684199999992 31.9736918099999983 26.8382413299999989
 25.3221083299999989 23.6746926299999991 20.5589488500000002
 14.2533619900000001 16.2549010000000003 21.1210983600000013
 12.3001382499999998 18.4236247700000000  0.8615325600000000
 24.7777832099999991 10.2023526600000007  5.9412092400000001
 33.9036473299999983 18.6007157700000008  2.2299575800000002
 28.8970740299999989 13.1232568500000006 27.5779503000000012
 32.6106762200000020 22.6352681900000015 15.9524420599999992
 12.6937136499999994 18.2453306099999999 14.2715694400000004
  7.2676217100000002 31.9181206099999990  2.8531083200000000
  2.1916099999999998 14.3893044200000002 26.0394365999999984
  4.8109315600000002  7.3266746300000003  9.4205861199999994
 26.7909747600000010  0.9127577500000000 10.7194510500000000
 16.8137997599999984 34.5325778099999994 19.0351686899999990
 24.0802146099999987 11.1669798100000008 13.4296795499999995
 32.6242119099999996  5.1296262500000003  8.6284064699999998
 12.6275491599999992 26.2187885600000001  9.1793142200000002
 31.7340710900000005 24.5327430200000016 21.8120036400000004
  4.3451367500000000 18.7133212200000010  4.7897366500000000
  1.1038819400000000  2.9437313899999999 20.2934624499999998
 32.2234176300000001 23.9800614199999984  7.8922584999999996
 30.1886748800000007 21.0586345900000005 12.4716310400000001
 30.7028124399999989 17.1687431900000007 15.0668329300000003
  3.2610994600000001 34.2986900399999968  8.0834285399999999
 23.1835003999999998 25.0912289199999989 28.2844675700000003
  7.0464436900000003 24.5791465000000002 31.7152179300000014
 22.6677439000000014  1.7718084300000001 28.7842513800000006
  6.9129069799999998 20.2275519499999987  9.4656904199999996
 14.8589710000000004  9.7256459399999997  8.9312536100000006
 27.5795040000000000 23.7237485700000015  5.0422972699999997
 10.8902119000000006 16.7913828400000007  7.7713181799999997
 27.5447124300000006 33.9818521600000025  2.9891876000000002
 14.2760024699999999 11.7735613699999995 23.2459532099999997
 24.7356599300000006  2.2365027700000000 33.9020550400000005
 26.8389939300000009  2.9710471900000002 24.3902006699999987
  6.1026538500000003 17.3033260099999993  2.0001703599999998
 16.8632458900000017 25.5736410200000002 16.1847037600000014
 31.3161636700000017  0.7627382900000000  9.3424813899999997
  9.0846636000000007 15.9412074100000005 33.8728897000000018
 26.6572083699999993 27.7010413600000014  1.4020555699999999
  9.3480138200000003 32.0683480300000028  7.7253344999999998
 24.6969309000000017 16.3175671199999996 24.3506326000000008
  6.0821660800000004 22.9652272199999992 31.5738114900000006
 26.0497262399999983  2.7488826000000000  0.4698501900000000
 21.7722249999999988  0.7855647900000000  7.9874240900000002
 19.6366811900000009 18.7007064999999990  2.7742151800000001
  6.2345513199999996 29.1040267700000008 26.3779200600000010
 23.7024818900000014 32.6131480199999970 29.1786927799999987
 21.2895073900000007  7.7506433799999996 30.0633480900000016
 14.6913302899999998 27.1881413700000003 26.0920102900000010
 13.4169821400000000 29.2188055300000009 30.4644992899999991
  1.8395332300000000 12.0350784900000001  8.5641607999999998
 17.8505008099999998 28.3671118299999989 31.0485068899999987
 17.2552999000000007 34.8254636699999978  6.5678976400000000
 31.6556192799999998  0.9932432000000000 33.4385054899999972
  5.9618103900000001 30.1471539799999988 23.2169759800000008
 27.7152188300000013 29.6829505400000002 26.3497307899999988
  4.9253923999999998  6.0701133000000000 30.3942942500000015
 11.9033894599999996  0.2666603100000000  1.7597908099999999
  1.8041701600000000 12.6878008100000006 23.8682851400000011
 19.2683081999999999 22.4558794000000006 10.9649935900000006
 13.6472750800000000 14.7521880799999998  0.0251054200000000
  1.9467634100000000 29.2526118900000007  3.6480288700000001
 27.4212015899999990 23.1350400500000006 15.6181198400000003
 28.7401642899999992  0.9412621900000000 34.7936620400000010
 32.0779834100000016 29.6671976000000015  6.5900763700000002
 19.4134953699999997 12.6166195299999995 17.5244321300000010
  8.1308704499999997 15.5397137999999995  5.9698400400000002
 25.1015827599999994 27.3014010099999993  4.6467816099999997
 13.4585297900000000 27.5102455900000002 14.6975960800000003
 27.4972616899999984  6.4771725299999998 11.8387353999999991
 33.6259252500000017  5.9256014700000001 16.5838243900000002
 19.3365834300000010 14.9576314999999997 22.9125884000000006
 21.8731648999999990 17.2825456399999986  2.7446072400000001
 33.6138408999999996 12.8240797900000008  4.3090552000000004
  7.2906992800000001 34.7828459600000031 25.2920480000000012
  8.4507036099999997  0.9755097300000000 15.3920112600000003
  8.5332054199999998 22.5834865700000016 20.6587716700000001
 11.9753916999999994 20.4082849199999998  2.0446581400000001
 29.5692857599999996  5.9857834299999997 13.0620265500000006
 13.4802038999999994  6.7869200999999997  2.7660952999999999
  9.7636852399999992 18.2577711100000002 13.3591287800000007
  1.8773411499999999 17.4727122399999999 13.8745461700000003
 19.4975212800000008 24.8402246899999994  9.6564072400000001
  0.2365478500000000 20.6597962799999983 29.1961041700000017
 33.9227368000000027 24.4373233700000014 28.0938128599999999
 22.7127870999999999 23.8128676299999995 32.8662683599999994
 13.3723577200000001 14.2161958599999991 21.6038041599999993
  5.1364655399999997 18.5763266400000013 12.3218327599999995
 33.0432507800000010 12.9159082200000004  7.6694253400000001
 30.0317321300000017  8.3219460099999996  6.9466081300000004
 26.6429090600000009 32.3725725299999993 10.8265156499999993
 31.2485501799999987 19.3828047499999983 21.7994831900000001
  3.9139854700000001 17.3538223000000009 10.6914571899999995
  1.3210461300000000 12.8223373699999996 10.0242293100000008
 22.2219583599999986 34.4541767500000020 31.3486648599999995
 22.0102461900000002 11.2077194900000006 33.1413906499999982
 17.3526567900000011 26.1026810500000011 17.7603468400000004
 18.1493089800000007 10.4360354700000002 13.4480946899999996
 27.1275324500000004 22.4378492999999999 22.9331021399999990
 16.6476229099999991  6.5982824300000003 17.3328658699999991
  8.4767047200000007 17.9762552800000002  6.9224275899999999
  5.2404498200000003 16.2401922499999998 18.9111378399999985
  4.4936176899999998 29.2325146999999994 15.8744929500000005
 32.6030925000000025  0.1756445400000000 12.0577655099999994
  4.8648711200000001  3.8888358699999999 14.6644538499999992
 30.4758173399999990 17.0620207899999983  6.3833682300000003
 10.2698674000000008 20.6614437799999990 21.8856029499999991
 16.3287426099999990  2.1771163400000000 15.7943047300000003
 14.8795704200000003  5.9401167600000004 15.5423198100000004
 14.7690199100000008  2.9176356499999998  1.7023204100000000
 15.8990727300000003 25.7152937600000016 16.9422446600000001
 23.3059941799999990 18.8441548700000006 33.7109403099999980
 34.7738628099999971 14.3123064000000007 26.9335876799999987
 17.8081937900000007 17.3130548900000001 25.5135292800000002
 20.8865615700000014 25.4402394200000010 14.1039302600000003
 24.7558658999999999 26.8382002799999988 24.6320964800000013
 11.6456009799999993  7.6157175300000004  2.3644809599999999
 14.8314145600000007  1.5844357400000000 29.6115497000000012
 16.3158620799999987 30.6939119799999993  7.5786125799999997
  8.7416907699999999 26.5967658699999987 26.8439073400000012
 15.5505911200000000 13.7849038799999999 17.8795286400000002
 26.2378096800000016 13.8673629900000002  3.7698274199999999
  9.4893973599999999 28.3015039900000005 13.3775283900000002
 31.1196131399999985 22.3380117600000005 24.9637200200000002
 20.2424447299999990 14.7685146799999991 29.4262989200000007
 17.8060076599999988 15.5706773900000002  1.3749114400000000
  8.1365057699999994  5.2523997199999997  7.0821237200000002
 29.2534032800000006 16.9489042900000015 30.2344619600000009
 20.6020839000000002  4.2240730800000001 13.9963100899999997
  0.9836308499999999 11.8836954800000001 19.2699775399999993
 15.5124348899999998  2.4932633200000001  9.2766789900000006
 23.1438671599999992 23.9753233700000017 33.2598513200000028
 13.3211638000000008 28.7999121799999998 25.1240751099999997
 20.3303759200000016 22.6281612999999986  1.5069813999999999
 22.8364067599999991  1.4883891800000000 25.3569136499999992
 13.6477799900000001 23.2383202699999991  1.4487890500000000
 24.7976194800000016 28.5906564900000006  8.1635548799999995
  4.8669371300000002  3.6124014199999999 23.6306201599999994
 14.8330129300000007 28.4483308299999997 31.0962843000000007
 15.2502166900000002  5.3919872399999997  8.1295212899999996
 27.8643741399999989 16.5362528500000003 24.8015870900000017
 25.2741791999999990 23.1298273300000012 33.0079814200000001
 15.1436873599999995 34.9534135000000035 22.0206312699999991
 10.7497631699999996  1.2696240299999999 23.5711327600000011
 30.0283101099999996 20.8079931800000004 34.9413689200000022
 29.5874815300000016 31.8021014000000015 12.9182553500000008
 12.1176134900000001 30.7298447099999983 16.5000442999999990
 11.2445577300000004 22.2817061099999982 23.6345243600000003
 10.4509754699999995 19.5447475900000001 13.5727117300000000
 21.5660412599999987  0.4554069100000000 24.0239210599999993
 10.0413088800000008 29.2783909599999994 16.9168485000000004
 16.4727197300000014  7.0004489699999999 21.5459191399999987
 12.2630428400000007 24.9610795000000003 10.8630960999999999
 16.0562267399999996  7.0028452100000003 26.8194370599999985
 24.2786040599999993 20.4984298600000017 12.1107076800000009
 19.6640450899999983 23.6057912700000010 17.5338997799999987
 27.2535188200000000  4.8908143400000004 19.9166071900000006
 33.4170482199999981 30.3294064600000013  6.3343257399999997
 26.0127793199999999 11.7820490899999992 25.8989857699999995
 24.2538367000000008 24.2333757500000004 30.3461540899999989
  7.8117701500000001  7.4208621499999996 17.4302038400000008
 34.4358975800000024  4.1306832800000004 19.3938498899999985
 32.4351313800000014 12.2530892100000006 32.6703234599999988
 10.1263331300000008 23.2808709100000009 16.5974458600000006
  3.2725978400000000 17.5518608200000017 14.1247988400000004
 25.4941738099999995 10.5792579300000007  5.5879741799999998
 12.0819931100000009 27.0581458300000008 11.2570190799999992
 21.7196128600000016 26.5333300299999983 10.6778151599999998
 17.0393409899999995 10.2040057700000002 33.7249375000000029
 25.0246223900000011 28.8285879700000010 17.0780378100000014
 30.5813957899999984  6.5191093699999998 16.6711809700000018
 17.5385295100000000  0.0654342500000000 14.7534254399999991
 20.8213338099999987 14.1574174300000006 13.7147485299999996
 28.7785758600000001 16.5244532000000000  1.4849510500000001
  2.5723249699999999  8.0658267899999991  7.3508512399999999
 30.7567560100000001 13.7982894700000003 32.8510565699999972
  2.7077661399999999  9.4255889400000008  5.8732598400000002
 11.8781623300000003 31.2742405000000012 31.1601140600000015
  3.0370259499999999 13.2951170800000007 11.0327302899999999
 32.0980659200000034 17.1939289600000009 18.3640363600000001
 14.3590554600000004  7.6450636599999999  5.5848935199999996
 30.3053559200000002 22.1169496700000003 19.5731596699999990
  1.0946015099999999 21.9676356499999983 30.0523959299999994
  5.6184123799999997 33.6568851199999983  1.2682184299999999
 34.9471980200000019 22.5571110200000007 32.3649208599999980
 22.2249073300000006 14.0175167100000007  7.4033741300000004
  3.5089888400000002  0.5754228800000000 11.1323448700000007
 26.3201824299999991 33.3061441999999985 21.3655371199999990
 25.5824574600000005 24.3624877799999986 30.3320575099999985
 15.8906285700000005 23.7944571799999984  3.4418376300000002
 26.9650391599999999 21.4131479200000001 20.7770602000000011
  5.0507247800000004 12.5313731700000002 19.7889305700000016
 22.5560845599999986 15.1132550999999999 13.4785033500000004
 13.2058022000000008 14.9175752700000004 14.6875611900000003
 33.8409998699999974 15.6848232799999998 29.8247895999999990
 30.2387585500000000 22.8150147600000004 26.9530465600000007
 29.8535383799999998 23.4196220299999993  3.5873928899999998
 23.3123285299999985 20.3056689299999995 27.3777176900000008
 27.3012826900000007  2.6581011800000001 14.7065626199999997
  3.1978758300000001 21.6990743299999984 31.3422352500000017
 18.9479265599999991 27.8017552999999999 14.1013690100000009
 16.7088783800000016 21.1189658300000005 11.4586932499999996
 16.2574890299999986 29.6181412399999999 22.0998798799999996
 12.6810808300000009 15.9254807700000001 14.5553468800000001
 16.7149635399999994 18.3921983800000000 32.6781458199999975
  1.5967362300000001 26.3458371999999983  9.4857536899999992
  2.0621993900000000  9.3851330300000004 25.9308207700000004
 34.3047450700000027  4.8504515300000000  6.5388158599999997
 32.8782365499999969  4.5216307100000002 10.0474016800000001
 26.6800933600000008 27.3290934300000004 15.0733307599999993
  7.4700604500000001  4.3059950699999998 25.8592049800000012
 20.6581069100000008  0.8028973900000000 19.2965100800000009
  6.4449852300000003 30.8667091000000013  6.7798518699999999
 23.9703798100000007 20.1735499900000015 11.8546783100000006
 21.5784252700000003 33.5935493899999997 21.7845608499999983
 33.1142650299999985 16.4523251700000017 14.2291893100000006
 29.9847465399999997 23.6350266399999995 18.8927321500000005
 10.1491724500000000 22.1413909599999990 10.3578378499999992
 29.1806967999999998 19.9710701300000011  3.7756963099999998
  3.1279466299999998  1.3990760400000000 29.2710683799999991
 33.8462918600000009 34.6273228000000017  1.4143200199999999
  5.4766577300000003 31.1865041800000000 26.5757638500000013
 23.8629924500000001  0.3140299900000000 27.9019778100000018
 18.5410845100000010 15.0073371099999999 18.3147784899999984
 26.4820759300000006 24.2502080500000012 33.2466280800000007
  1.0781821100000000 26.0067250200000011 15.0273526299999993
  4.7156866300000004 16.5452115299999996  0.3701703800000000
 26.4535950200000016  0.5715417500000000 15.9022571900000003
  9.2365460499999994 13.6294847499999996 30.7502506900000014
  9.4633239299999996 10.0853624300000000 34.6863023699999999
 12.6838584599999997 27.6090690300000006 30.6232199300000012
  9.4573779099999999 15.1506098799999993 11.3002580399999992
 13.4368565199999992 13.2475411500000000 16.4240486899999993
 28.9863382600000001  8.3870594300000008 16.3078608100000011
  1.2166569400000000  8.3531306399999998  6.0666222200000002
  6.7197299800000003 28.5018575600000013 20.7199778700000010
 25.6680060899999987 27.1784378099999984  3.0043275999999999
 23.7339635700000002  1.7256813200000001 23.5259481100000016
  5.6098738499999996 30.1497608899999996 32.0312216000000021
 13.7415138999999993 23.6241151599999988 10.5035258599999999
 27.7590883899999987 31.9985460599999989 24.5635785599999998
 15.0648626199999995  5.1460093300000000  3.9787429099999998
 20.7320504700000008 18.5723032600000018 14.7009457999999995
 13.7960924299999999 30.9254246299999984 13.6118389299999993
 14.1769139400000004 26.3925811599999989 25.1114917800000015
 18.8424300100000011  4.7211294099999996  3.0220459499999999
  6.5262573300000000 31.8069273999999993 24.0287506300000011
 21.2117932799999984 31.6097168699999997 34.5115152899999984
 15.0374519099999997 34.4542179199999978 32.0405941599999977
 31.2660959299999988 34.2742547499999972 17.3995539999999984
  9.3041163999999998 29.2843443100000016 11.9748663600000000
 11.5789273099999992  7.0312754799999997 14.6470248200000004
 17.5462033300000009 24.0393038200000007 23.5793519300000014
 28.1679146399999993  8.1414367199999997 18.1269586300000007
 19.7937509899999995 33.5728981999999974 24.7001108299999999
 34.7626688400000035  1.1751940599999999 11.4866376300000006
 30.9186126600000009  4.1230135800000003 30.4892828199999997
 33.3763188900000003 10.7916364100000006  5.0332223500000000
 33.3680103100000025 11.1492907199999998 31.1290774399999997
  6.4045059300000000 15.5311906400000002  2.7210251300000001
 22.2692835900000006 24.8493759400000016 23.4613898899999995
  5.5798055800000004 14.7923714000000004 10.3861835800000009
 15.5874463599999995  3.2109209500000002 30.9483523799999993
 13.9583908399999999 28.6748296099999997 22.8612318999999999
 33.7245000599999969 17.6725311100000013 12.2304062800000004
  1.4383677900000000 24.6474669099999986 24.9762843799999992
 21.4115443600000006 28.8260576200000003  9.5504081500000009
  3.7097825200000001 15.3148870000000006  7.3058234600000000
  8.9748278999999993 24.9324379000000000 19.4838236999999985
  4.6249902199999999 32.2107059200000023 20.3344246300000009
 20.6747244899999991  0.0944368600000000 12.2003645299999999
 21.5266509100000007  3.4217746899999999  4.7672892300000003
  8.8301125299999992  7.7012185700000000  4.3805760500000002
 19.3417364099999993 31.5638423999999986 33.4992912700000005
 12.5883090299999996 31.7099039400000002  3.3554484300000000
 10.0217882399999993 16.1948784799999999 27.3226841699999987
 12.3528669400000002 29.6346823599999993 20.1064469099999990
  4.0531889899999998 11.9473218600000006  3.6385026200000001
  7.3135263799999999 33.4379238100000009 31.1855012299999999
  9.7190949500000006  3.8287560500000000 19.9029266599999985
 13.4883371299999997  3.4821290600000001  4.1430480799999998
 17.2090372400000007 27.2889434400000006  5.2724249800000003
 28.6465638499999997  2.7986221300000000 31.4420738899999996
 16.9359354400000015 22.2668692700000008 19.2718035800000003
 11.2027593099999994 19.7756879400000010  9.9871345999999992
 28.7711917700000015 32.4201114500000003  4.8131183000000002
  9.0791872799999993 28.9006396099999989  3.0499228000000000
 20.0525182899999983  7.6748300399999998 15.8684086799999999
  0.3446517900000000 17.5626115700000014 19.8125772500000004
 34.9859245000000030  8.4330407699999999 19.1161974500000014
 20.9304897300000015 28.7408617699999986 12.6637937300000001
  5.3811875799999997  1.6197001900000001 27.3010458400000005
 33.6774532499999992 31.9567572400000017 22.2189009900000016
 18.0689754200000010 25.2699426799999998 21.9265763699999994
  4.9690562900000002  4.9290754400000001 32.9709417600000023
 22.6182324100000010  9.6320403599999995 10.7023278299999998
  9.0238015699999998  8.0330233999999994 16.0242644799999994
 29.8131466399999994  9.5556175099999994 21.2634928300000006
 25.5239114200000010 20.3792991299999997  4.8804074999999996
 20.0088763999999983  9.1856638499999992 33.4522509199999973
 26.9812825600000004 14.4159649000000005 19.1220079600000012
 13.5878470799999995 30.9459343199999992  8.3180901299999999
 12.1408270599999994  0.8804568600000000 27.8384558899999988
  0.9281314400000000 24.1051929499999993 10.9779661799999992
 21.6775961099999996 20.3578403700000017 29.2230765900000016
 32.2481929300000019 20.3785160000000012 26.7184109999999997
  6.3336666299999997 14.9350623500000008 28.5928886599999998
 10.6797646400000001 14.8043576300000002  1.8386892500000001
 32.8502537899999965 24.2154185999999996  8.5403416399999994
  2.5220084900000002  2.3967315800000000 31.8676314199999986
 29.2812518900000001 30.0004568200000001  7.6778247700000000
 31.2009242100000002 23.9331797699999989 24.9524195400000011
  5.3152460899999996 13.3409715799999997 11.7093987399999993
 29.8645421599999992 33.3600538299999982 17.4247758700000013
 13.2080590999999998 17.8493260999999990  8.6238431500000008
  5.9318696500000003 16.9332113799999995 11.4836656599999998
 15.9687674600000005  7.0746368600000000  8.4217035700000000
  3.5718504599999998  7.0906625999999999 32.7662798899999999
 12.8661754100000003 11.8100578899999995  6.6429267200000002
 32.6693875799999986 29.3971309800000000 17.5803944200000011
  3.6890579500000000 16.9969620500000005 32.9411269599999983
 11.5208922400000002 11.6358444199999997 18.6372374900000004
 21.0504159299999998 14.3405181099999997 11.0878690399999993
 13.8149280599999997 32.4959566100000004 19.5427552499999990
 15.0875517200000004  1.4817817799999999 19.3063688499999984
 32.1412359300000006  7.7522047299999999 21.3048902899999995
 21.2911517400000001  0.3872750400000000 33.9315950000000015
 33.3171718299999995 31.7069920900000000 24.4161048899999997
 21.4749276199999990  9.1084744499999992 31.1299990300000005
 21.8937516000000016 13.2830826599999998 18.7702345400000006
 16.3318746099999998 19.8166107400000016 32.7766436699999986
 12.0502018300000007 17.7421726600000014 27.6959388799999999
 20.6447318099999997 21.0075019000000012 28.0844757899999991
  5.7845352800000001 25.6844956099999990 24.3177648700000013
 13.6741316099999999 11.1300522199999996 22.7877186300000005
 23.1869333100000006 12.7881622700000008 30.6431935700000011
 30.1543041400000007  3.3897020000000002 25.7214889299999996
 16.0644569500000003  5.3278955699999999 15.9407706499999993
 26.5323031799999995 28.4195752500000012  2.8011949700000001
  4.6838206099999997  5.9730278300000004  8.6787153200000002
 18.1684484499999996 17.1130385899999986 23.8396407900000007
 27.8427428200000016  2.9786260100000002 11.7673735199999996
 24.2467323199999996  9.8300992199999992 14.4775252900000009
  3.7675153500000000  5.6304174299999996 25.4257717700000008
 15.9461115499999995 11.2968454000000005 26.0806832899999996
 33.0441108999999997 27.3719166099999995 34.8025267000000014
  6.0663053600000003  1.3941205000000001 15.9831597799999994
  3.9663838100000000 23.0127361499999985 25.0563959499999989
  2.8468069200000001  1.2839681000000001 19.6517939400000010
 27.7006684700000001 30.1349729900000014 28.4910913599999986
 14.7725205200000005 26.7524448200000009 18.3400645400000002
 31.4647271099999983 12.6685296100000002 14.9771630200000008
  1.1788074600000000  2.2169934300000000 21.0086450700000000
 12.2977036000000002 12.5044705300000007 22.6361384799999996
 30.5793783599999998  7.6121080599999997 11.7001405700000003
 14.2626251300000000 31.9406384400000007 31.3102247700000014
  5.9476900600000002  2.8269067099999998 16.8210646399999995
 16.6334472899999994 13.3486146800000007  0.1669236000000000
  5.4848959099999997 29.6455028499999997 26.9663415099999995
  8.3017809400000004 18.0321832399999984  1.9037333999999999
  6.0473340400000000 32.5431801800000002  8.2292232399999996
 23.5549914499999993  3.7413463299999998 20.8077179200000018
 30.3150846600000001 10.6278432800000004 17.1620720800000015
  7.9455234199999998 15.4120705900000008 30.6704183800000010
 32.7217306699999995 34.1274461100000011 34.9867699999999999
 22.6433402999999984 11.6204400499999991  4.7359726400000000
  7.4921445200000001 25.4729268200000014  3.4810075600000001
 20.2941377500000009  8.5731400600000001 28.7650487599999991
 34.1744525200000027 20.0234889400000000  9.7786573499999996
 24.8940521699999984  4.3348005299999999 19.9924984600000002
 13.9216131300000008  5.5518638899999999  0.1764450500000000
 25.5120377699999992 30.8187790899999996  6.2201947400000002
 32.8129927900000027 27.9698164100000000  3.7044414799999998
 30.5478794700000016  3.2103121500000000 20.7162354700000009
 32.7695503400000021 32.8326450400000027  8.2652564999999996
 34.1659797699999999 17.6219176299999987  1.5696136199999999
 25.4961813200000016  9.3194401800000009  6.8310602999999999
  9.6304548899999993 19.0553796999999996 13.7665542999999992
 24.4782000300000000 15.1078461399999995 27.5700590000000005
  4.9815791500000000  5.4007673100000000 15.6961832599999997
 10.7520808300000006  5.2225595299999998 30.5580116400000001
 33.5016199000000015 16.7255946599999987 22.0693825299999986
 25.1121225199999998 29.4432471699999994 22.6551693299999997
  0.4309591200000000 33.1299476399999975  0.0300021800000000
 14.2466320300000007  8.1444558100000002 33.8687150100000025
 26.4932209800000003  1.5650037600000000 18.0181779400000011
 11.5165602099999997  8.8274051300000007 32.1979641900000004
 16.1842218100000004 23.2159888800000012 11.1250769399999996
  9.1680893599999997 18.0778748100000008 34.8419943700000019
  4.3994279199999999 21.1850956199999985  2.9020533999999998
 19.8114607700000001 16.2211085100000005 13.1706771899999993
 19.5714897500000014  8.0281847899999992  4.7017528600000000
 27.3602860499999991 14.3275670799999997  3.4199480300000000
  9.0665557499999991 26.6024296800000002 17.0356844500000015
 18.7485759799999983  2.3165225700000001 13.7948576099999993
 10.1719282100000008 19.5975081700000011 25.3198364799999993
 20.4917544700000001  4.9173564399999998 11.0096763600000003
 29.6305288100000013 20.2977375500000008 34.0750441499999965
 29.2670452700000006  1.2297876700000001 19.0413258100000000
 22.5628168699999989 23.2631452000000003 33.6813389400000034
 27.2635433399999982 33.3728611800000010 22.6777923799999996
 30.6565219599999992  9.1646365299999992 30.0462076600000003
  6.6120694899999997  4.0519371900000003 25.9083977499999989
  7.4410382799999999  6.5303484699999998 30.5667858800000012
  5.9702174599999998 31.4448159099999991 28.0210021100000013
 23.9823940700000016 12.0972030900000007  2.6923319600000002
 30.0233190599999986  6.9234804499999996 22.9358707200000005
 28.1791839499999988 22.5446208100000014 32.4418966100000006
 20.9563036099999991  7.5947807699999998  0.4803534500000000
 23.3004838099999994 31.2313620900000011 10.5025933299999998
 12.0860404399999997 25.0816994899999983  8.1233774000000007
 29.6039233800000012 28.1402038999999995 32.4069982099999976
 29.4188424200000007 32.4846263499999992  4.1150994299999999
  2.4761458099999998  1.5825538299999999 32.9822175099999981
  2.1296160500000001 22.4568994099999983 28.1084597900000013
 23.8837579799999986 34.3203232500000013 21.6728304399999985
 10.2611338300000003 13.8762839099999997 13.7037312999999994
 18.6118837200000016 14.9296150000000001  7.0393558299999999
 10.4533538900000007 24.5188677400000010 33.6101875299999975
 21.4217910499999995 26.0422217600000003 16.6210722100000012
 15.3605819599999993  5.3010603900000000 19.9220194600000013
 19.3810989199999995 28.1296142600000003 29.4269478999999983
 28.7133445700000003  5.1821899399999998 17.0662683800000003
  7.7726128599999997 14.3043277500000006 32.8365376599999976
  3.6884598400000002  6.9445385799999997 26.8599022400000003
  4.3769052700000000 27.6468979899999994  1.4144881700000000
  8.3027205399999993 33.8241137400000014 11.8795818600000000
 20.1323793400000000 19.8996233300000007 27.9693649499999992
 31.1167764799999986  9.6622746700000004 28.8504440600000009
 34.4133356899999967  9.9328792499999992 26.9014999599999989
  3.5098365500000002 14.8229759300000001 34.7564590300000020
  1.8069989900000001 25.2320549000000014 15.1467203000000001
 15.9280043599999992 21.9692985199999988 23.0002040299999990
 24.4291158599999996 30.1503371400000013  6.7163144299999997
  6.0966521299999998 21.4323048999999983 27.7485304699999986
 29.5515497600000003 22.8968311399999997  2.0409209100000001
  1.7576635800000000  1.0517501000000000  1.7640051999999999
  2.6354337900000000 18.7356555000000000 30.1619331200000005
 26.6100096099999988  4.4314840599999998 34.9525902299999984
  8.1839626100000000 32.8595265200000028  5.0622227100000003
 30.7771480400000002  6.5270910799999999 10.8197285000000001
 22.1769094399999993 12.3169705999999994 21.3249205300000000
  7.9394122800000000 17.7022049000000017 20.9577653099999992
 32.1615582100000026 34.3088901500000034  4.5167209599999998
 32.5292164999999969 18.5416491900000011 24.4979446600000017
 31.9558813599999993  7.4980091299999998 19.0394343600000013
 25.7732397599999992 10.8406869399999994 24.4253544299999987
  1.9319394100000000 25.1057423700000015 27.2120096899999986
  7.2469280700000001 34.1201013700000004 16.5436781800000006