Na Cl 
 1.0000000000000000
    35.0000000000000000    0.0000000000000000    0.0000000000000000
     0.0000000000000000   35.0000000000000000    0.0000000000000000
     0.0000000000000000    0.0000000000000000   35.0000000000000000
 2500 2500
Cartesian
 14.7743697899999997 22.8331094000000014 16.0696727899999985
 22.9906271900000014  3.4711839100000002 30.1879170300000013
  8.3214925500000003 34.3252506199999985 34.4871262999999999
 25.1317923999999984 10.0347979400000007 24.8489220199999998
 15.8323625299999993 24.5169904400000007  2.0583755199999998
 15.1173365799999999 12.0759255400000001 30.0804761200000002
 22.5621357399999987 11.8153583500000003 25.7278661699999986
 18.2466622200000010  1.6518941100000000  8.3842848500000002
  4.6754961399999999  6.0636072800000003 26.0475500300000000
  1.1733241599999999 15.0591866299999992 14.7496117899999994
 26.7252870400000013 16.8992829899999997  1.2492751499999999
 31.5674051300000009 23.3780207000000004  4.3939246399999998
 33.6914592999999982 22.3565308899999984 21.2146688099999992
  9.9387601399999994 20.7416565000000013  5.0208311800000001
  0.1096156700000000 22.3105361100000010 18.1803457699999989
  7.0712947100000001 22.2502469900000008 19.9011003899999999
 17.7941777899999991 26.7461882499999994 18.1859846000000012
 31.8431479899999985  2.7882090300000000 31.4291567000000001
  9.8366784200000001 20.0541834299999984  0.6609873400000000
 14.2142740599999993 24.3041825600000010 30.3963539900000015
 11.5214946800000000 21.7611313899999992 24.3352698300000014
 27.8799525300000006 33.3621927499999984 18.3735986599999990
  0.0726481700000000 30.9977379400000004  3.9815564700000001
 33.0196387800000011  1.0689762700000001 11.2841005800000005
 21.8784351199999989  0.8590841400000000 18.6271640900000008
 26.7468742400000004 29.7154004699999987 11.7357510900000008
 17.7686006399999989 16.8709997300000012 15.8924721600000005
 19.7795226600000014  4.4373637099999996 28.7719286300000014
  9.8044407699999994  3.2360092200000001 32.6069488699999965
 29.9896433000000009  0.9348952600000000 32.7845760599999991
  5.3698585999999997 21.2134103500000002 23.7878015599999983
 31.5807548900000015  2.7474660499999999 11.6618392499999999
  0.5322487800000000 20.5053144399999994 22.8198596599999988
  3.3812924299999998 24.3819167999999991  6.8755753100000003
 22.7942199700000003 27.4550616500000011 32.2211456699999985
 20.7952058000000015 30.0239079999999987 16.8216853099999994
 27.0649800899999988 21.1202970599999986 33.8327176900000026
 16.4862327099999995 24.1132324000000011  6.0970226299999997
 27.6593947399999998  1.4473555199999999  0.7041808500000000
  5.1675466900000000 15.9572040899999994 22.7290614499999997
 17.3358642399999994 23.8703050599999997 18.2172197199999992
 31.8117753000000008  0.5073983200000000 22.8435273400000014
 16.1639450899999986 32.4251919599999994 20.2011939600000012
 21.4668546099999986 13.4254106899999996 30.8774978699999991
 13.1066924599999997 29.1802213299999984 11.9799166699999997
 26.4594237899999989 28.5356927800000015 29.3886249500000005
 14.6194725000000005  9.4742956300000003 19.4867139199999997
 18.2008380400000007  1.4849962299999999  3.3316393199999998
 29.8620324400000001 26.1792106000000011  8.9925552199999998
  7.8756631900000000 31.2713141199999995 16.9764312699999991
  2.8804194999999999  6.2105541100000003 10.7829265099999994
 33.6457985699999966 24.9365320900000000 18.2949057699999997
  7.4812804499999999 17.8805623099999984  8.6108232999999998
 32.1071721300000021 30.2420625600000008  8.3454917000000002
 17.6789477099999992 15.0741354100000002 20.9939091399999995
  9.6308396399999996 25.5218781600000000 21.2063186600000009
  9.5976370600000003 27.4860972299999986 28.8361346199999993
  3.9144868000000002 25.7796914500000014 14.2741721300000002
 16.0109212999999997 15.5543661600000007  7.2320272499999998
 28.6819591799999998  2.6879932700000002 27.1028452900000012
 27.5207698900000004 16.5794893799999983 16.4780162300000015
 26.0188251500000014  8.3943056200000008 33.0945407000000031
 34.9455979199999973 30.6641800999999994 32.8749922499999983
 19.9948073700000002 17.7274520100000004 25.2860146199999996
 12.0477241900000003 11.1004097399999999 14.5865655299999997
 16.4069286900000009 21.2505768099999983 18.4443768599999984
 34.6418394100000029  0.3950032000000000 23.8187235999999984
 26.2875967499999987 10.6386198600000004 23.2840183299999985
 34.4960713500000011  0.4711022000000000  7.8147101000000001
 21.8327227400000012  2.5710236000000002 21.1936291499999996
  6.3250832900000002 10.6749240000000007  3.4476056399999999
 18.9080055300000005 21.8489187600000001 29.7775466400000006
  6.2263222899999997 30.7986988599999982 18.7318125900000005
  0.5741946999999999 25.4903350800000013 16.0616437699999999
 28.0468814100000010  3.9358396899999999 34.6576190500000010
 20.6033433700000010 25.3920148899999987  8.5942119699999999
 32.9205451500000024 15.6022581799999998  7.1531700400000000
 33.3289005500000002 18.8315155599999997 31.2820691500000017
 22.7362514100000013 33.1775100500000022 29.4113277599999989
 11.1856141299999994 11.6167155700000002 12.1385581800000004
 32.7473726799999980 10.0925739500000002 15.8903482000000000
 19.0821611199999985  8.8819076900000002  3.2225189200000002
 15.8754661499999994 13.9595781399999996 13.6298407000000008
  1.7327273500000000  1.9485805700000001 24.7936483099999982
 31.8471446500000006 34.9601363199999966 30.0110982200000009
 11.5278542799999997 23.6469520600000003  9.3232313900000001
  0.5499152100000000  2.4248897700000001 15.1223498900000006
 26.3346169799999998 30.9076254500000012 29.4608874699999994
  4.1356462100000000 32.8058455800000033 12.8466704400000005
 33.9900592700000033  0.9260891700000000 24.7807331099999999
 24.7813062299999984 34.4138058599999965 17.8350077599999999
 12.9754323500000002 28.0915504399999989 19.6881763999999997
  9.1807293500000000 20.5182507399999992 30.2401543400000001
 11.2740478999999993 27.9230494699999987 22.6924720499999992
 32.3778039899999968 28.7516654400000000 19.2409998699999996
 18.4848718000000005 15.2403238800000000 14.1235115499999999
  3.8586455800000001 32.2562034299999993 15.0110853399999993
 11.3112986499999995 23.9963541400000011  1.7239662499999999
 29.7007648899999985 10.7554305699999997 26.5216641899999992
 24.6100863300000015 26.7209097000000000 13.3293379699999992
 26.1832155299999982  6.3033614399999998 30.5956553199999988
  1.1789323400000000  4.3157908799999998 15.4972914199999998
 27.9769566500000018 18.7103484400000006 24.8261952999999984
 18.8643759600000003 23.5668383000000006 27.8512631500000012
  6.1797783400000004 18.5345428900000009 10.0623452199999992
 32.8361875299999966 32.8037736599999974 13.0239447899999998
  3.4401171800000001 33.0494613700000031 12.2972515900000001
  4.9074921500000004 20.2205657899999984 32.0491768600000029
  0.5155512900000000 19.8704569599999985 27.7700483200000008
  6.2021252000000002  9.1182078600000001 19.7195085200000015
 10.7797459100000008 15.1894660100000003 34.3552446500000030
 13.5967968700000004  6.3649557000000003 15.8103745399999998
  4.9648343400000003  3.9707115700000002 25.7494076400000012
 30.2941519700000015  8.8121965099999997 21.5867875900000001
 34.1390189700000022 19.4917685399999989 33.1539240999999976
 18.0023985599999996 26.3126028000000005 10.9152752000000000
 18.0303294100000002  5.7463704099999999 14.2474019799999994
 21.0851225800000002  2.6552760900000001  2.2253107999999999
 20.7986352200000013 17.6622218300000000 13.9623781099999995
 25.6889772900000004 29.6413644500000011 27.4123804699999987
 14.8786401599999998 25.3051440999999997 18.5568125600000009
 34.3487112299999993  8.7895882099999998 26.6091249900000015
 24.5637695100000002 18.2741435999999986  8.5314153099999999
 27.4971622000000018  4.8051469999999998 15.1056764999999995
 26.1048915000000008 19.9114173399999999 16.1912236599999986
  0.8960162900000000  9.3458234400000002 30.2544766500000009
  6.9890219699999996  4.4922568399999996  6.3607722999999998
 15.5001123100000004  5.3875363500000004  3.3233621100000001
 30.7469883700000004 24.6335418399999995  0.9376337400000000
  8.8102014600000000 23.0558824499999986 15.2163877900000006
 31.8296222499999999 20.4612178699999987 16.6887917299999984
 33.5226580499999969 20.3137966699999986 23.9806146300000016
 17.1900243199999991 22.7386778999999990  3.9594289100000002
 11.1216067499999998 20.8446942899999996 21.7768969000000006
  9.3061188200000000 27.9390626100000006 11.8253059599999997
 17.9172707200000012 30.5690687399999987  9.3383275099999992
  9.2704757900000008 23.8866108699999984 12.2688875700000004
 18.1934010700000002 16.4917745899999986 12.2555181999999991
  3.4944264500000002  0.8252902100000000 10.6526376999999997
 13.8818382600000003  2.0555681300000002  2.9335650599999998
 24.4280122499999983 11.6019202600000000  8.4737930099999996
  4.0391031200000000 20.2061476499999984 34.7235360000000028
  8.4695440499999997  2.6268489700000002 14.4505901600000009
  6.0687948699999996  8.2352992999999994 20.6753750099999998
 11.0277964599999994 19.1750226499999989 29.6057041500000011
 23.0695704299999989  0.2702816600000000 27.6238209999999995
 33.5596240499999965 11.6013939300000004 34.6277260999999967
  8.1925427800000001  2.0665238200000000 12.0659242399999993
  1.9887694499999999  0.2481341900000000  5.3913290900000002
 32.0679657700000007  1.3007462400000001 21.6420220500000013
 17.4646304400000005 18.0438379600000012 22.7846468000000009
  6.5587623500000003 18.1188071800000010 22.7922961999999991
 30.1222953800000006 25.4185013300000016 33.7518343500000029
 22.0798979300000013 26.8444539099999986 24.7368702999999996
 22.5791147999999993 17.1825082800000004  1.4166561499999999
  9.7399479000000007  4.3043718799999997 33.5781252800000019
  7.5515753500000002  9.3268431700000001 26.2531526399999997
 26.7364862599999995 30.1245985099999984 29.1270975800000009
 29.1289674000000005 25.5550487900000007 18.7049367400000008
  3.8717318900000000  7.1979586299999996 16.0907358299999999
 26.9971095100000014  0.4195033200000000 15.5922635300000003
 14.1732239300000007 34.3745136799999997 22.4514872399999987
  7.1460526299999998 18.7064856800000001 29.9048187500000004
 10.2887928899999999 23.7421128400000008 33.6904304400000001
  5.0643245400000003 31.1025222499999998 15.0914766599999997
 32.4481742800000035 21.4651137399999996 19.1666074799999997
 28.1719025199999997  5.1657195500000004 20.2485268400000002
 11.9905236500000001 29.7309280899999990 27.7084210900000016
 20.4332598999999995  1.7992163800000001 34.4297498099999970
  5.8050388499999999 20.2880257200000003 10.8482086100000004
 10.8421535099999993 14.0740348300000004 12.3034290300000002
  3.7316763000000002 33.2834946799999969 25.6951234500000005
 27.9398905100000015 25.7397687300000015  8.2931215199999997
 12.4933726800000002 11.1146235499999992  8.4780347000000003
  5.3291876499999997  2.6568322200000001 28.3791976699999999
 24.1752294700000014 33.0817469200000005 29.9204852800000012
 28.5961079699999985 29.7866641399999992 19.4642844799999999
 26.2292056199999983  9.2587946799999994  2.5622162600000000
 13.1686941300000004 21.2421918800000000 17.5189761799999992
 21.4327063100000004 34.4949781600000023 17.0979959900000011
 16.0186430900000012  5.3343908999999998 20.1078214300000013
 27.1547527100000003 24.9288513300000005 29.2043450299999989
 32.4269327399999980 14.4586275600000000  1.1533370300000001
 29.1354522200000012 29.5454192800000008 24.8618189399999991
 22.5908594299999983  4.5743805200000001 21.6134633799999989
 27.4790778799999984 15.8619139800000006 31.1882839999999995
 21.4892428500000001  4.7045659700000000  4.6402045100000002
  7.9172076999999996 29.5098870600000005 22.6717691600000002
 34.4241965300000032 17.4710070100000010 20.2148123899999987
  5.3519193600000001 34.7086392000000004  3.0990608300000000
  5.9153425500000001 19.1622180600000007 24.3989806099999988
 13.6671244400000003 33.3604520100000030 24.1169868299999983
 34.1976335000000020 24.6262552399999990 18.4718989200000010
  7.2050722299999999 30.6490527399999984 23.6293214300000010
 28.0051908000000012  3.2418216599999998 25.2966291299999995
 15.4457808799999992  2.2391723200000002  8.7692603899999995
 34.9593057800000011 16.0522599399999990 10.3327447200000009
 27.4404712699999997 32.0006873399999989 25.5521201699999985
  4.4837265100000003  2.9914312999999999 16.9858757400000009
 21.6135494699999988 28.9259387600000011  8.2528080100000007
 34.9441982000000024  7.1391315400000002  7.3837463500000000
 23.6249809800000001 25.0554072800000007 21.2300944999999999
 24.1983161699999982  1.0998691100000000  5.5000725600000004
  4.7195166000000004 10.9154551499999997 21.0547124100000005
 16.5515315100000002  1.5900844199999999 19.5488524199999993
 12.5626654700000007 20.7184795000000008  0.4849020700000000
 29.7490848399999983 17.8689675900000005 23.7382201899999998
  3.2666792500000001 23.0781205500000013  3.9721650899999998
 15.1786757800000007 28.0037509900000003 14.0429227000000001
 14.4018241000000007 26.4577135000000006 34.7907689800000028
 18.4541990799999986 24.7239549200000006 15.5102632299999996
  0.9941293800000000 13.3325166399999997  9.6072251800000004
 13.6335838500000008 29.6437835599999993 33.0702122499999973
 11.0572881400000007 24.8418408500000005  1.8191522400000000
 19.4917227000000004 32.3833789199999984 17.4494669199999990
  8.1906060899999993  4.5165366799999997 29.4319699899999989
  8.1196804700000005  2.4697125899999999 33.4594233099999983
  7.5276394499999997 27.0362409499999998 28.1015959600000009
 13.5233098799999993 31.2692266200000013 16.8918353100000012
 16.0760861499999983 25.7798456599999994 16.8660308299999997
  2.3802206799999999 34.3689174900000012 33.3962163400000023
 30.2079729700000001 30.4017295400000016 31.8683970400000014
  7.1490551699999996 34.1702102900000000 18.7243649599999991
 15.4018274700000006 33.5142433600000018 18.8882127400000002
  4.1914413000000001 25.5538577999999994 33.6880190600000020
 34.5363322299999993 12.1357795599999996 21.0470751199999988
 28.1915232099999997 19.9305709399999991 23.1057179599999998
 12.8017435899999992 13.9045358199999995 33.5335065800000010
 27.6451126199999990  6.4078753800000001  2.1614681099999999
 32.7946050899999975 33.9277820800000001  4.2334515899999996
 31.6208739799999989 12.0290139699999994 11.6377146699999994
 15.0704408700000005 28.8996910900000010 22.1081564700000008
 11.7857158299999991 17.5258913099999987 32.6551898499999993
  0.7757498200000000 18.0272042900000002 23.2224714799999994
 15.0781939099999995 19.2051000000000016 10.1156687000000005
 19.0437883100000001 28.9501053900000009 29.4213370699999999
  4.4120908800000000 24.0114289399999983 10.0862356500000008
 14.3625447899999994 31.2903181699999990 21.3774088199999994
 15.1101067400000009 30.5639903400000001 28.9855879099999996
 30.7759219299999991 20.9198695000000008 25.2466581400000010
 15.5833038100000003  3.5871095600000000 18.5504524199999992
 32.4538511000000014 11.8754813499999994 21.2150151800000017
 15.7601701199999997  1.1792331500000000  9.3715862899999998
  8.2507429699999992  0.2370680300000000 29.4023203299999984
 34.7977273699999969 30.4039479800000016 34.1536897699999997
 21.0640365000000003 33.2614667599999976  5.4718561799999996
 20.4868932900000011 28.2154615699999987  2.2625355200000001
 16.4344849800000006 29.3890477700000012 21.7258549199999997
 26.4436185700000017  7.8972936200000001  9.8138752000000000
 21.8004026700000004 19.3676211599999988 11.6087782700000002
 18.7364506199999994  8.5255369000000005 33.6986419500000025
  3.0751852999999998 24.6393508399999988 28.5695162600000003
  2.8597736000000000  9.2148551100000002 34.0698478600000030
 11.9330211500000001  8.2864764199999996  5.8092441499999996
 20.9664403600000000  2.9630608600000001 30.1638590300000011
 23.9786597800000010 19.3348870300000009 21.4463639499999985
 19.0388275399999998 15.5745414499999999 31.3182018100000015
  0.0178956400000000 20.7720273300000002 25.4633258200000014
 17.1171218299999985 22.4666466500000013 16.9302559200000005
 31.8113043799999993 27.5926693500000013 34.9937560300000001
  0.0576624800000000 24.1332790899999985 28.0216714099999997
  0.2313128700000000  2.6754791400000002 26.7779761100000009
 27.4444339600000013 28.6014853299999992 15.1639719500000005
 25.8765151899999992 31.5908228099999988 31.9589696299999986
 24.4025683200000003  3.9657777200000002 12.8260904399999998
  3.1021045699999998 22.0715443100000002 26.4452591699999999
  0.4709230000000000  4.8029275499999997 12.8034005400000002
  6.7529098999999997 26.1566117100000000 14.1729461600000004
 29.7060452899999987 29.5031709000000006 14.7933366799999995
 26.6095426800000006 31.5838662100000001 20.0393522500000003
 31.3933178099999992  2.4924949000000001 31.3617609699999988
 32.1166290700000019 14.1847435700000002 17.9851538799999986
 16.4813309799999992 11.7298173000000006 23.0392902900000003
 16.3518941600000005  6.2851778400000002  4.9839577700000000
 10.3781745399999998 20.9795300800000000 12.9620659499999995
 13.4424297900000003  1.9174024999999999 25.7837512300000000
 12.5070028999999998 30.1977345700000015 33.3249921700000016
 23.1434287500000018 16.6070706299999991 25.0361371199999994
 12.3565034499999999 20.7534608700000014 28.4169048599999989
 27.9200195499999992  6.7685569299999999  9.1363149700000008
  9.0456857900000003 25.8411122499999983 31.5735296599999984
 21.3130510300000005 18.4487425899999984  3.0167513200000000
 22.5393822899999989 14.3981382000000000 34.5086745999999991
  2.2940558599999998 21.1967634599999997 24.0034747499999987
 16.4000700100000003 10.9766883600000007  0.2012170900000000
 21.8557077699999986  3.8804145900000000 13.1279311300000003
  1.1384970800000001 24.7204121599999986 25.9670893800000009
 13.8711804099999991 32.9291503899999967 20.2305489399999985
 24.8360073200000002  8.7750157200000007 26.6891601200000004
  4.7140596400000003 24.2003077900000001 34.5729765099999966
 33.0161383000000015 12.2363584799999998 31.4769371299999996
  7.8822709499999997  2.3278852300000001 29.7670722099999985
  5.1826331300000001 24.5150544500000009  4.5201670600000003
 20.4477534900000002  0.3928464600000000 22.5705030600000001
 12.4449222699999993  1.8086074599999999 17.2655082799999988
 31.3976350099999983  5.0516643400000003 28.3224818999999997
 15.9533112700000004 27.3025710400000001 24.3114344100000004
 12.2780851400000000 32.7768726600000022 15.8988189099999992
 21.4494920600000007  1.6131282899999999 21.8471051600000017
 34.2964993399999969  6.2643526200000004  4.9745587599999999
 27.4090156100000009 28.3253350200000007 28.9057105199999995
 18.2766578600000003 15.7886830400000004 25.3958840700000010
  3.6235141400000002  0.4022267100000000  5.2243767099999996
 26.0993219799999991 31.3045582600000003 15.7107156700000008
  9.9981953200000007  4.6687102800000000 32.0136064599999983
 32.6837000900000021 24.9474773700000014 27.2522282000000011
 18.1994058299999999 12.4137453499999992  2.8181589100000002
  9.7967700600000001 14.3144589199999999 28.1111361100000003
 33.8646413399999986 28.0270078699999985 19.9213480599999997
  8.0968440699999995  3.6582247400000001 23.7832740499999993
 25.4868840399999996 28.0601081400000005 16.2374408800000012
  7.6688394100000004 20.1839290899999995 11.2961922900000005
 15.1037699599999993 29.0616617599999998 14.3492453599999994
 17.7667468100000008 20.7136367300000011 24.0925401000000008
  8.3214650700000004 33.8634165699999983  7.4422479800000003
 26.8617296699999990  0.0905131300000000 16.2542423300000003
 10.0507773100000009 13.4141876300000007 17.2514331200000015
  4.8364281599999996 15.8481360700000007  9.6228834400000007
 31.8020200099999997 11.5502842599999997 15.6276239399999994
 13.4755782400000008 34.0434854000000016 23.8591304499999985
  5.4055278199999997 25.7060562300000015  1.6871140600000001
  5.3259714100000002 18.6014302299999983 14.2379168000000007
  1.6677331500000001 29.5910740799999985 22.1821097899999984
 29.7192015299999994  5.6200554499999997 26.2718768699999998
 26.4344811300000018 29.3243237000000008 18.9083469700000002
 27.5876040200000006 19.8607026100000006  3.8288218000000001
 21.0079317299999992  0.3086450600000000  7.3975697699999996
 10.9551743500000001 23.6152874699999984  2.1364611000000000
 32.5017883000000012 12.5559384900000008 12.6581621999999996
 15.7320517800000008 18.5942562299999992 33.6644415399999986
 23.2690211799999993 27.4390446799999985  8.0239398699999995
  3.3574315900000000  8.3527296399999997 34.3270225999999994
 29.2688483800000014 31.5347025300000006 33.7453733099999980
 18.4891809800000004 17.6647232400000007 21.0035206599999995
 31.1716795799999993 22.4187591799999986 17.0855376300000010
 16.6308642300000002  4.9351182900000001 29.5330703999999997
 27.3142542800000001 10.6717129199999992 19.4790372199999986
 29.1784841099999994 17.7824721900000000  5.0100874900000001
 29.5404458800000000 11.2739647299999994 26.5252207899999988
 14.3858207399999998  2.4892333500000001 11.5448532499999992
 29.3485618700000011  6.2793976699999998 12.8366448999999996
  5.4907552900000001 23.1240811300000004  6.4315239200000001
 14.6225352599999994 25.9501654500000001  9.4307117399999996
 21.9721654899999983  1.1854377599999999  8.6523999499999995
 30.8859210799999993 14.6755380899999999  6.7686066199999999
  9.9715059600000000 11.1007474899999998 20.2630702900000017
 11.4223578700000008  0.5687914700000000  4.6783115899999999
 18.3829706500000007 17.5876428900000015 20.5140870500000005
 30.2610649299999999 12.7182551900000007 10.7149086899999997
 10.4703851300000004 30.7628449500000016 11.1350721299999993
  2.1573488599999999 33.5622295699999995 20.3923561100000015
 14.3291014400000005 29.2078738700000002 21.7361764199999996
 24.9170889299999985  6.5136228799999998 29.4596852700000014
 18.9302695599999993 11.0405074299999999 22.8083329100000007
 19.6512218400000016 18.0854259900000010 21.7545939399999995
 19.4604022100000016 30.9799433300000011 19.9075773500000004
 21.6525174400000004 18.8605844800000000 29.8433266999999987
 26.7918443300000000 15.5276414400000000 13.0696517199999995
  1.6364135399999999 28.2024303299999985 28.2466398000000005
  1.2751718200000000 11.8128525799999995 18.6133122799999988
  3.9395071399999999 26.2965771900000007 21.5728902600000012
 10.5665851400000008  2.5964653300000000 28.7927920899999990
 10.4567368799999993 11.3767751700000002  4.4603356400000003
 29.8610855800000010 10.2653844000000003 15.3156564399999997
 20.2377247000000011  5.4390662599999997 29.3865668699999993
 15.0293074200000003  2.5697282200000000 34.4222351399999980
 19.5060266300000009 27.7896418499999989 20.5106209899999996
  7.0069723599999998 26.1843912799999998 26.0641611799999993
  0.3569380000000000 14.0569425799999994  5.0338843999999998
  9.4950334099999996 18.0265164400000018 11.6618283900000002
  0.3498161200000000 34.3594728300000014 14.6597992900000005
 22.2467173000000003 30.5776127200000012 12.9369420000000002
 11.1842160100000001 23.1185114499999997 17.8219256100000010
  3.1038014199999999 15.5904817100000006 19.2260524000000004
 12.2627622100000000 20.2444006700000010 12.6420048000000005
 24.1747260699999984 24.6210895600000015  1.6523020500000001
 15.2405756399999994 18.3547989600000001 34.1061162399999986
 26.4956215700000008  6.9116590899999997 34.2543693499999975
 33.1856464900000034 26.1604995299999992  9.5156161600000004
 13.9607641099999995 33.5623901200000034 23.0907708300000003
  6.5853863800000001 10.5888868899999995 27.4219116499999984
  0.0690400800000000  5.3566810100000000  9.7376867800000007
  1.3016749999999999  2.2517938000000002 10.8984598699999999
 15.4150091800000002 10.0592694399999996 16.1414532999999984
  4.4055304199999998 18.7497821599999988 22.5887364099999992
  3.8929065100000000 13.0797172899999996 30.8084722299999996
  7.9927071700000001  3.4293448700000000 26.9992829299999997
  1.9482209399999999 18.7492650699999999 13.8979838000000004
 28.4137518699999987  9.9277124299999997 10.0627284899999996
  4.2777590099999996  6.2956827799999999  6.5404306400000003
 25.0176981000000005 17.4518858299999984 13.8451507899999999
 15.4493136399999997 26.6144314299999998  8.7489647500000007
  8.8504843399999995  0.0903557600000000 13.6092425699999993
  5.5398964399999997  9.0394985899999991 26.8528482699999991
 25.8208723499999984  6.4015246299999999  0.4243875900000000
 27.6823071899999995  1.5369677200000000  1.8165117799999999
 10.1134697700000000 17.0863813100000002 30.8107583200000015
 11.4150539599999998 17.8118765900000007  9.2097745100000008
 18.6801286600000012  6.9224183100000003  5.0845876800000003
 21.6651413800000014 21.0311463200000013  5.4762404299999998
 24.1729816299999989 30.3022972300000006  5.7095605899999997
 25.5848081100000009 28.8698432700000005 10.4558484499999995
 31.4449626600000016 30.4874041099999999  1.8009495099999999
 28.5584396299999987 26.6949063200000012 31.2905171300000013
 24.7214598800000012  8.5762245499999992 10.6060578299999992
  1.0139561600000000 31.5611233999999996 22.8010037600000004
  1.4702742600000001  0.8995273000000000 33.3553954300000015
  9.1310300200000007 25.2215209700000003 13.1029385400000002
  1.0881020699999999 17.7315563000000012 24.2666549799999984
 29.6701945400000007 21.9595714899999983 34.5180723300000025
 20.2415748800000017  0.1489743000000000 18.8111143100000007
  3.3982271700000002 29.0039963699999994 25.1669340699999999
  5.6608326900000003 11.6149802999999991 17.9739844600000005
  3.7567465699999998 34.6396802699999995 34.1062420599999996
 28.6103065399999998 23.4220153800000013  8.8124264500000002
 25.4512922000000010 24.8680483000000017 22.2877620100000016
 20.4160652599999999 27.8088879400000017 28.9796278899999997
  0.6058695900000000 32.8502246500000012 23.7256444100000010
  1.9055596400000001  1.7409455300000001  0.0714758100000000
 11.2939141700000008 11.8153714700000005 25.9483741200000004
 14.3238431500000001 10.8318469499999992 15.8517517899999998
  0.3924102300000000 15.2386820699999994 21.5296118700000001
 18.1867219300000009  9.2354210699999992 29.7219549200000017
 16.8963203200000009 21.4555660099999983 33.6979018600000018
 25.6366192400000017 24.6595880799999989 18.6968718600000017
  8.3253556799999995 29.2529273900000000  8.9506288299999994
  3.2188022200000002 23.4089868500000016 34.8420019400000029
  4.5265281599999998 22.3587750599999993 23.9324858499999991
 13.2896032000000002 23.3610440799999992 34.0678631600000017
 13.5760570699999992  7.7911867299999997 11.4753836400000004
 16.7729161200000014 12.4013055199999993  3.7418304099999999
 28.9437766100000005 28.0535046500000007 10.2526375699999992
 11.0797157399999993 16.7825199900000008 33.8134016799999984
  6.8420964700000004 20.1154454700000009 15.2920616799999998
  8.6806032000000002 14.8980364299999994  1.2983507400000001
 16.3808306700000017  2.6210855500000001 22.5848700499999993
  8.9109929999999995  2.0593429300000001 31.3765795899999986
  1.1731040200000000 11.3593096899999999 25.9179560400000000
 28.0872459499999998 17.3426668399999997 33.2016247299999989
 14.7068644600000002  8.2709283800000009 24.4933487300000010
 24.7120820799999983 25.9634393400000008 22.5250458699999996
 18.4459468700000002 26.0291086100000015  6.2284398699999999
 31.3889565399999988 34.1926378799999995 10.6647701700000006
  7.7922543199999996 29.4184308600000008 25.5675246700000010
 18.3871827400000001 18.3802833899999989  7.4229572499999996
 17.6424478799999989 31.6215555500000001 23.4841967300000007
  3.8943972400000000  3.1343514600000000  4.0450328300000002
 14.8667033499999999 34.6831727300000026 30.0840828800000004
 13.1810049100000004 18.1495986599999988 15.3047415200000003
 11.7907206799999997 31.6424167599999997 24.0984175500000006
  2.1038238699999998  8.9678457500000004 12.5835833000000008
 22.2845824800000010  1.9778116200000000 26.0798911099999984
 19.7298132499999994  8.9713495800000000  1.4723552900000001
  0.8753758600000000 12.4421625400000000 25.4257865699999996
 16.1948335700000001 26.5677525900000013 29.2178226499999987
 13.9453034299999992 18.7147215699999983 28.3254682100000004
 31.1442086499999995 15.7148225700000008  9.0229372699999999
 28.5066168100000006 30.7087587699999993 12.1087002699999999
 20.9255063700000008 14.9856406599999996  3.6625556499999998
 26.5728126600000003  9.2623989699999996 28.1394491500000008
 19.7219015099999986 15.9987531599999997 21.0443328100000002
 17.1015259300000011  5.3462395999999996  9.2489654699999999
 12.3625878199999999 18.0135451199999999  3.6528733500000001
  3.8423254600000001  2.9640312500000001 11.4732299300000005
 15.5753713200000004 10.2658092599999993 22.4562792199999990
 17.6848707599999990  9.6229305600000004 32.5939311799999984
 21.2013775299999985 31.5521502500000004 11.9891769099999994
  7.0964029499999999 24.2443990599999992  5.6150194800000000
 11.6324325500000008 31.2939386400000004 12.2266471800000005
  8.2591410399999994  1.3835245000000000 12.8962795299999993
 27.7700777999999993  6.6976517700000002  7.4332641400000004
 15.8704833000000001  0.2128486400000000  7.3471027600000003
  2.7561270100000002 17.2266724899999986  8.6845042100000001
 10.4623100800000000  0.0455408300000000 30.4047478399999989
 12.5970051200000004  2.8650410800000001 27.7453745599999984
 11.5102104300000008  7.1067599799999996 23.3150213899999983
 30.5645840600000014  3.9643261100000000 23.4288712900000000
 19.0397479999999995 31.0446125100000003 21.8025128899999991
 19.8340656700000011 11.1417951300000002 10.1508289600000001
 14.9823691199999995 18.6777331800000006  1.6615008499999999
 29.8448653800000017 17.6523597499999987 23.2102471399999999
 19.6236743199999992 10.0943255599999997 10.3296666199999994
 10.7068399900000006 14.8596370300000000 20.9195062299999996
 19.1411900800000012 20.9817065000000014 14.5411853900000008
 23.7027869600000010  2.7404373099999999 33.5298390100000034
  1.0042370199999999  8.2115703900000003  6.8635939199999996
 31.4230694100000001 12.5275619700000007 25.7339722299999991