Na Cl 
 1.0000000000000000
    35.0000000000000000    0.0000000000000000    0.0000000000000000
     0.0000000000000000   35.0000000000000000    0.0000000000000000
     0.0000000000000000    0.0000000000000000   35.0000000000000000
 2500 2500
Cartesian
 24.4342531200000010 11.4922124199999995 19.6142227700000014
 26.2420391200000012 14.9514574800000002 24.1459280599999992
 30.6129788599999983 12.3357171900000004 21.3987376500000011
 23.5837241000000013 31.6510260999999993 28.7957368900000006
 24.9499525700000007 33.8529026799999997  5.7353914200000000
  4.7236069399999998  9.6618914100000008 22.4088725800000006
 25.9214265700000013 16.4163934000000005  5.3239190499999998
 19.1074120900000004 13.2750767300000003 24.2146375399999982
 30.4131333499999990 13.5322670200000008  6.8117872400000001
  0.7081055600000000  1.1301042699999999 23.6624327900000004
 24.5078251300000005 23.0169973900000002 26.6751879900000013
 14.8845935100000002 20.3631619599999993 13.6630201400000004
 34.3795377300000027  1.8906938900000001 31.8922854800000017
 23.6419938400000014 30.9903994199999993 20.6431032200000004
 28.6357537099999995 31.1126685800000011 10.6208234299999997
  4.1793598400000000 32.5008204800000016 31.2898474100000001
 13.4654190800000002  3.2985612899999999 33.9195704899999981
  6.2212212100000004 15.0649324700000005  6.3200429800000002
 30.9623422599999998  4.0864329499999998 10.6785931000000005
 30.1142299999999992 29.8636334999999988 18.0883029700000009
  0.1080163500000000 30.4307534900000007 29.6739012399999993
 14.2581360400000001 26.4924039200000010 22.8326997300000016
  9.1843461699999995 11.3061303599999992  7.1329295999999998
  8.1478560499999997 21.0167068199999996  7.7914866199999997
 16.5155654500000004 27.1084803200000017 17.2287991200000015
  9.4267891200000005 26.0446700500000006 22.7694999399999993
 31.9854796999999991 14.9573789399999999 18.6678787600000007
 11.0383875800000002 22.1799999399999983 29.2590572400000006
  6.9749580399999997 13.1197828899999998  4.1910051099999999
 18.2228585800000005 21.5841764100000013 25.2530055299999994
 17.2639562099999999  5.3119549499999996 28.0268937499999993
 18.0033397499999985  7.1311038199999999 12.4619144100000003
  7.3954435700000003 10.2200114400000004 22.7323147100000007
  2.0133451899999999 28.2926764900000016  5.0137507100000001
 21.1081840700000001  5.2496395199999997 30.6913590700000007
 34.6718735999999979 15.1796198499999999  8.8707363699999995
 25.4661594499999993 29.7419092599999999  2.2689218000000002
 18.7687174699999986 25.8345809899999992 26.8027527600000006
 23.8656241400000013  9.5449123799999995 16.3424246800000006
 22.1315761799999997 20.4009051200000009 18.0123581100000010
 18.7027928599999989  2.8396365399999999 20.7713037199999988
 13.3016958400000007 16.6019925199999996  9.6883281199999995
 11.7307561200000006  3.8180724900000000 15.3442585400000002
 10.9532818600000006 26.8081792900000018 10.0693573999999995
 10.6898820800000003  9.8480390599999996  0.9924315900000000
 19.7976917199999995 29.8047220199999998  7.9629405899999997
 28.1425426399999985  1.7141160400000000  4.1483237199999996
  0.8767920800000000  1.2444211000000001 19.9854884999999989
  1.1051721000000001 24.6274700600000003  3.8892919099999999
 22.3290911899999998 15.0355685300000008  2.8002326599999998
 23.5103154799999992 22.8723184500000016 10.0561863999999996
 34.3248233600000034 27.3062368500000012 15.9227263400000005
  3.2615509399999998  6.8866289600000004 33.5728559300000029
 23.9895547600000008 27.4468833200000013 34.7679919799999979
 20.6411602999999992 30.9811280099999991  4.8184868600000001
 29.3085766999999997 34.2486744200000004  7.4709505099999998
 19.2651998800000008  5.2143950099999996 33.3368706700000033
 12.7853039000000006 17.6025911400000012 26.7493449400000003
  1.2404722300000000 23.6167032200000016 25.9310498299999992
  3.1544578500000000 26.9730612699999988 16.2407503800000015
 28.2916283700000015 22.3980413899999995 18.8815646100000016
 32.4563630999999972 19.0946737900000016  9.1823977299999999
 13.5586447799999998 30.1428915599999989 21.5784614899999987
 34.2022061300000004 31.4783447500000015 31.5401721399999992
 20.6730848599999995  7.5372428600000001 13.4406672700000005
  7.2948296399999997 34.2017629899999989 24.0306543599999998
 18.2079082800000016 15.3144042299999992 34.1919525200000010
 34.1460372900000024 32.4487320300000022 30.8393040499999991
  1.1831117200000001  4.5586680700000004  2.5342335000000000
 32.8624820100000008 19.7351318400000011 28.3608913200000003
 31.5003444600000009 16.2892788199999998  3.9091874299999998
  6.7131048399999997 22.1530106899999986 30.6506387199999999
 15.2850350899999992 30.5847607900000007 28.0746058900000008
 14.9011952300000008 19.3881744199999986  7.0474993699999997
  7.3219560599999998  0.1155168400000000 16.4914527699999987
  6.8466361400000002 26.4136628199999990 29.4310680100000006
 27.9599640899999997 13.1163903299999998 17.1723049199999984
  4.9288530699999997 29.2335373899999986 33.0628825200000023
 27.8664793400000015 16.9183291000000011  6.3572477599999999
 26.2631842800000008 20.3382374199999987 14.7562533499999997
 33.3499742899999987 23.0179652399999988  7.9418269199999996
 23.2849817899999998 15.6890250000000009 30.4432151200000014
 29.1164646800000000 25.4219256499999986 21.3044103100000015
 13.2241216200000000  7.8121464700000001 13.7457424699999997
 24.6936917399999984 31.8770294999999990 12.2347972100000000
  5.2367645400000002 24.3015624300000006 21.3596829499999998
 32.1912605899999988  8.5167099900000007 25.3447254899999983
 18.8013692900000002 14.6136845599999994 17.1963215299999987
 23.5759216100000017  5.5145350500000001  2.7905017399999998
 34.9627162000000027  3.3711796500000002 29.4163034000000003
 24.8112697000000004 13.0098709400000008 11.9008241600000009
 27.1517398999999990  9.2925552800000002  9.9765702699999999
 26.2165437700000012  6.4510881199999996 28.4379697900000004
 31.9582769300000002 12.7602962000000009 17.2982695900000003
 22.0169527800000004 18.9253592099999999 33.5121870899999976
 19.3284531000000008 18.3111808200000006  1.0160557500000000
 31.8489701700000012 30.6416952000000009  4.9712001199999998
  5.9603490299999997  5.5861289200000002 16.0687135699999999
  6.8688934899999996 15.4929430900000007 24.8945944200000007
 13.4484901400000005 33.7737243500000019  4.9852294099999996
 31.7507367699999996 24.6329029599999991 25.2001290400000002
  3.5686916200000001 24.0000171400000006 28.2881434399999989
 33.8267460699999987 21.1211472499999999 13.1219070299999991
  4.8913798000000002 29.4203630400000016 23.0416351699999993
 20.7622809400000001  1.6557736900000000  3.5883498500000002
  4.3959869400000002 33.3525704300000001 31.6511478199999985
 30.8413932899999992  1.2970174299999999 28.9720180200000001
 12.7068735700000008 29.4241217400000004 16.2140138399999998
 33.9306587199999967 17.5811216100000003 15.9109509800000009
 15.3530600600000007 18.8804263900000002 13.3264078500000007
 11.9368043900000007  1.8713830199999999 22.3344349599999994
 34.8483211799999992  5.7341156700000004 18.2820161399999996
  0.8452271000000000 30.7318677300000012 15.5010011700000003
 20.3267447799999985 31.5995034299999986  2.8541539199999999
 19.7648612700000008  3.0234232099999998 29.6738401100000004
 13.2306511499999999 12.5538875500000007 13.1879753500000003
 30.3017766000000002 31.9593667000000003 31.0761525200000008
 26.8954163400000006  6.2623527599999997  6.3628463599999998
 15.3587218599999993  9.0382370699999992  5.6503921799999999
 11.1413247500000008  2.2451394499999999  4.0587431199999999
  0.2955977000000000 33.1104903600000000 23.0115020299999991
  4.3146782200000002 31.7968473200000012 29.6129005399999983
  4.0194157900000000  4.3212254300000001  1.8357947699999999
 19.2026381599999993  3.7396110100000000 26.6423224199999993
 22.5129908000000007 25.8363907700000013 22.2197020899999984
 31.5331089099999993  6.9614637100000003 31.3206412100000016
  6.0167614599999997  8.7097936499999999 15.5019372299999993
  1.0589600800000001 17.9420283599999983 26.6705908700000016
  7.6207978499999998 17.7495434699999990 11.5770334500000001
 10.2011577800000008 20.8588239800000004 14.2546498499999998
  2.9000165400000002 20.5779433300000001 18.4935467799999991
 21.0407308399999984 26.5631900899999991 22.5358392800000011
 24.8508555000000015 13.3283868600000002 10.1978954500000007
  1.0287679599999999  0.5030985700000000 20.5777293499999985
 14.8972127099999998 22.4540122300000000 14.5835616399999992
  0.9204684800000000  0.3137560500000000 23.2978813000000002
 22.4910756499999991  7.5083962099999999 18.6151705599999993
  0.1716511000000000 14.9400749600000005  7.8398014199999997
 23.5425428200000013  4.5170994499999999  3.8905285599999999
  8.1135409000000003  4.2818513899999999  5.0763594000000003
 23.3724139300000004 15.1608777600000000  8.8725219800000001
 20.4768810899999991 34.9405004600000026 14.9912246000000007
 27.5118365199999992  6.4363083899999998 25.0350749300000004
 29.5043986400000016  0.4279505500000000 17.5648715499999994
 22.7960995199999985 24.0446750199999997  8.8531168699999991
  9.3352082299999992 26.8446412700000003 27.8858882299999991
 28.1235520900000004 32.5399466699999991 23.8837368699999999
 33.9655930600000033  9.7225828500000002 27.4499053400000008
 15.5590544800000004 16.0286955900000017 34.2867633999999981
 17.6323850799999988  2.4960637700000001 21.3437593499999991
  9.5633592299999997 11.3785252999999997 33.8747270699999987
 22.5379092099999987 24.6401625499999994  7.2119735699999996
  6.6397974800000004 15.0761861600000007 20.4608089000000000
  9.8152437999999993  9.8025323699999998  6.1615522699999996
 27.2090022000000005 26.6999308900000010 10.7384893199999993
 21.7900154499999985 19.7896935700000007  0.3797862500000000
 13.0675723799999997  1.6890529700000001  2.9132120700000002
 32.3552560400000004 34.7883394300000006 12.6207827100000003
 17.4950299399999984  3.9681630299999999 17.9160800000000009
 10.5565338299999993  8.6640892100000002 17.3472771500000000
  5.6870240299999999 31.8129542200000017 20.3216130300000017
 15.3502140899999997  6.0482793099999999 13.4304358500000003
 10.3353312800000001  0.9128610900000000 12.4563963100000006
 19.6528113100000006  9.7997591600000007 29.5521971199999989
 33.7770496799999975 25.8739975400000013 24.2765791100000001
 21.4651500800000008 19.7774555999999997  4.6962671000000000
  5.1611168799999998 12.8913234600000006 14.4734036699999997
  4.4954210000000003 24.5407166299999986 15.8244114800000002
 30.8836919300000012 12.2102779899999998 13.1421869400000002
 30.7358656199999984 12.6934726799999993 14.1953801800000008
 21.7546500599999995 20.4035188400000003 26.9411035199999986
  4.1269284600000002 26.2866648699999992 29.9765288299999995
 25.5200751699999984 25.9033212599999985 27.1203476499999994
  6.6830370600000002  6.8038388899999998  7.1202782500000001
  5.5165558499999996  1.7542051000000001 12.9250316900000009
 21.0076433199999997 30.4613049999999994 18.1531054199999993
  4.2428196299999996 14.0695793600000005  7.4202975000000002
  7.9401441300000002 30.0024398800000007  6.0071226400000004
 21.7101328199999983  7.2022263200000003 17.8177274200000006
  2.5448171799999999  0.7422765300000000 15.4415635800000004
  1.3591504100000000 23.2409855699999994 11.2445005200000008
 21.3202366400000010 34.2172509800000029  4.3371438099999997
 24.3760407900000011 13.1175956399999993  2.4300008499999999
 31.0243049599999985 30.4934537900000002 33.4778518500000004
  2.2561246300000000 13.6866288699999998 11.1714111799999998
 17.9076790700000004  9.3621408400000004 24.5011776200000000
 16.2923282699999987 20.1612622200000011 15.3340507000000006
 14.3901499699999995  5.2505578999999996 11.1266419200000009
  0.4707163800000000  1.3301327199999999 25.5406677699999989
 22.0032922900000010 34.3335733099999985 34.3666892500000003
 30.9462959300000016 14.3956180499999995 27.1525207000000002
 22.4153808000000012 30.3051503800000006 18.6625076800000009
 25.7665401000000003  3.2394644600000002 20.6791566200000005
  4.5853107599999996 30.3179549600000016 23.8689572900000009
 30.5651635100000014 13.7031078300000004  8.1332361800000008
 20.3004479999999994  9.6295221200000007  3.3782229099999999
  7.7923689700000001 31.3452047100000009 33.8555876400000031
 15.8614539299999997 23.4562616300000002 24.3891357500000012
 23.2045299900000010 28.5356214000000001 28.1888425399999996
  9.8765501499999999 25.1784031400000003 23.4214900499999992
 34.9833427599999993  0.0417321300000000  1.3919736400000000
 14.9009365299999992 15.0401958499999999 10.5716075000000007
 17.0071839999999987 29.7414760999999999 29.9888722500000000
 22.9758756400000017  0.5419017800000000  7.7432882300000001
 11.4452195299999993 34.8045859300000018  5.6756450400000000
 15.5662688599999992 32.2806779300000031  6.3540184300000000
  6.9878221800000002 19.3274207900000015  0.9611767300000000
 19.4973437499999989 21.8563822799999983 15.2169887199999998
  6.9294343899999999 18.0037498099999986 14.0230045899999993
 29.6381532800000009  8.4421685100000001 32.5261832300000009
  2.5615798700000001  2.4728257100000000 15.7817149699999995
 13.2834249500000006 24.5231637900000017  0.8138050100000001
 27.6207966399999982 17.7291166400000009 18.2634063900000001
  3.0712668500000002 28.7819796600000011  3.7321602000000000
  6.4165402199999999  7.7914950100000002 16.6566357499999995
 18.0771115999999985 22.0147316800000006 16.5954170400000010
  4.1741244000000002 14.5088334999999997  4.9646869699999998
  1.4939004899999999 12.9855939700000000 23.8778369099999992
  4.8049467000000003 11.7391637600000003  5.1253217199999996
  6.2820751499999998 22.8369767900000014 11.0688434499999993
  9.0518244100000000 24.0128119899999994 33.3310610600000032
 20.1432862200000002 28.2115833599999988  7.0814800399999998
 18.4350913200000015 18.5797318800000006 34.5536449800000014
 23.1112274299999996  0.3994706200000000 28.9026406300000005
  1.6810837300000001  8.9742155700000001 14.6411536400000006
 23.8693048499999989  1.4065698700000000 15.2197331800000004
 18.0555895000000000 10.2926623599999996 18.7763456200000007
 14.0409185300000008 15.7177960500000005 23.9982572999999988
 33.7104939399999992 27.2716617700000015 29.8193481200000008
  8.7838379700000004 34.9647346100000007  2.2946163300000002
 30.6166988999999994  4.8583506800000000 34.2999437900000004
 29.1552234000000006 11.8396749400000001 14.4167600500000006
 32.4861595799999989 29.8841245899999990 12.4820081100000007
 30.1103599700000011 34.8200873400000006 21.2078469799999993
  0.2842114200000000 16.7413614499999994  7.0618714400000000
  3.8732168200000001 32.1550762500000005 30.3664561699999993
 34.0287911400000027 21.8926874100000006 30.3972853299999990
 27.1745462599999996  7.5989292500000003  0.2038727800000000
 31.4898047100000014 14.1477065900000003 25.5046222900000004
 11.1868617900000000 32.5860632500000023 28.9650859300000008
  1.1992362700000001 30.5640390800000006 29.8048913700000000
 10.8092737000000003 21.4630234900000012 19.0357185400000013
 33.3215523000000005  0.3295303200000000  8.4161008400000004
 14.4067364599999994  4.0197263500000000  9.5408267500000008
 17.6751521499999988 21.2821430900000017 23.9788440600000001
 22.4321335399999988 31.8683326600000001  6.0670596200000002
 14.0709994999999992 31.2885714899999989 27.0210890500000005
 18.4436711299999985 22.7807028799999998 10.2732496399999995
  7.5067507500000001 25.9599121500000010 33.2434684099999984
 17.9735665900000008 31.7336367199999998 17.2324231700000006
  0.3362905100000000 17.0346730499999985  1.7500150000000001
 12.5021871400000002 19.2592628899999987 10.4313957599999991
  5.4685384399999997 34.7254993199999973  6.4671212499999999
 17.9069071300000004 31.3880554700000012 19.0482611700000000
 34.1255126799999999  2.4915674399999999 15.7739030499999995
 21.9886064400000016 32.5084744999999984 19.9309006300000000
 28.6469047900000007  8.5288157699999996 18.8067297400000015
 34.7066603600000008  4.8407090000000004 17.7961834600000017
 25.4554172100000002 24.1971186100000004 15.9725604899999993
  0.8241711400000000 26.8442679599999998 21.6116836600000006
 32.5672424199999995 27.6432759700000013 10.5392271399999995
 32.7905406599999978  0.6168832700000000  7.9572015900000004
  1.6871590700000001  6.0825465200000002 29.3594100299999994
 13.6044134000000003 29.3759861899999990 12.1999147200000007
 13.9666521199999991 27.5222509799999990  6.4722351099999997
 33.8554290900000012 13.1967317299999998  2.4701546400000001
  5.8890347800000002 32.0076127000000028  1.9466273000000001
 26.9650815500000007 22.1256214399999998 25.3196038100000003
 16.5812308000000002 10.7461328199999997 10.2543883900000008
  5.5056119399999996 27.8198921900000009  3.9280034599999998
  7.9541075399999999 19.6853572399999983 31.7991854799999984
 33.9104310800000022 27.6151066100000016 27.0968714599999991
 32.1187048299999987 14.0721150300000009 15.0372260299999994
 30.6579201200000000 32.6633885000000035 33.5704853900000018
 19.1480132999999988 30.6595386699999999 24.8664001699999986
 29.5875802300000004 33.4609786299999996 33.6678301700000020
 10.2217059399999997 16.2118071999999991 31.8436861799999988
 11.8336918299999994 18.8585589300000009 30.7999117700000014
  4.1171566000000004  2.0509712100000002 30.6730564799999996
  7.0602647799999998 11.8701688900000004  1.9284684599999999
  1.7694729199999999 24.5313702800000009 33.7402975099999978
  3.1802690400000002  5.7817829800000000 14.4265835800000009
 22.5901889199999992 28.3051914300000007  5.3523160399999998
  6.3756492500000004 20.5369574099999994 29.6431342200000003
 22.1568490300000001 25.1616787299999984 22.3343858200000014
 34.0224435700000001 20.2090218600000000 13.0303915099999994
  6.7900558799999997 20.4691398100000015  9.8328638999999995
 25.9436187499999988  4.4002559000000003  0.1009280100000000
 16.2970171199999996 28.9666960899999992 28.2611776299999988
  0.6125026400000000  4.3319241399999999  6.6489372800000002
 28.6888749099999991 13.9206119499999996 23.7250525900000007
 26.9588704300000011 22.7352386099999997 16.1553916999999991
 28.6682500100000013 17.2779996000000011 31.3392860199999994
  4.3802038400000001 13.0858846700000004 29.4636459299999984
 15.4971011099999991 24.7783586599999985 19.8740232699999986
 17.7090408000000004 30.8487095099999991 19.2607441299999991
  0.3266067900000000 29.2803545599999993 14.9190823899999998
  5.0177618300000004 18.5230809900000004 27.4222139399999989
  5.1497624799999997 32.0579877899999985  8.6007493499999992
  2.7943170700000000 29.0869770400000007 19.8230403399999986
  0.8389633000000000 30.4561660100000005  1.7821943099999999
 28.3397172899999994 25.6284470300000002 27.3091554899999984
 29.9762957400000012 21.6024295100000003 17.0327104300000016
  3.7642164899999999 20.1865001399999997 19.5078074800000003
 22.7203780000000002 11.3930173700000008 32.4428823200000025
  2.5231620600000002 21.7847222199999990  0.8263759000000001
 28.8997393699999989 22.9195161700000014 33.3082126299999999
 21.1296432699999990 15.9143663499999999  2.7552523400000002
  2.5260509199999999  0.3378344400000000  7.9833916499999997
 21.8634930800000014 29.7281908799999997 16.7041616799999986
 11.8453976799999996  5.5987685400000000 18.5027892600000001
  1.3791340100000000  9.1052786999999995 12.4191920800000002
 24.3612826799999986 10.0779225799999992 14.6448702900000001
 16.3349623800000003  1.7126783200000000 14.9844869000000003
 19.2712779300000001  2.3681971599999998  7.2896761699999999
 17.5873343999999996 15.3292739400000002  4.1071758400000000
  9.3044074200000004 34.1755120500000018  2.8309443100000000
 14.6810863200000004 30.0177223600000005 17.8597179299999986
  8.2792909300000002 25.0426532299999991 16.8728059600000009
 11.2497062900000007  3.8136839000000000 11.5853067000000003
  9.2496385799999992 23.6756045899999990  0.8863060699999999
 21.1461062700000006 12.6080208099999993 13.0057105400000008
 11.9770671800000006 13.5681093599999993 14.2140424200000002
 20.4109160400000000 11.2659532299999992 31.8759421500000002
 28.9597554099999996 16.6091829500000010 25.5379176900000004
 10.7826337799999994 28.7258689300000007  5.6790827100000003
  3.3431877000000001 13.9555987500000001 16.7482717200000017
 18.2027259400000005 33.2148581399999969 27.1207740500000014
 13.8494086000000003 17.0103079500000014 12.2456525799999998
 12.6828541999999995 10.7304863000000008 27.2831767300000010
 13.3513724400000005 11.5165998100000007  9.4930378300000005
 19.4868457699999986 20.4168744999999987  6.4097089699999996
 32.9786188400000029 11.6468865600000004 29.2224838600000005
 22.2861640200000011 28.5587443299999997 31.8158953900000014
 34.7537439099999972 26.1739051499999995 24.8237953599999983
 13.5286775499999994 16.4835502799999993 14.0296279399999992
  0.9568686300000000 17.0910232999999998  3.8286637899999998
 18.3522489799999988 26.2486833799999992 21.6216159400000016
 24.4991594200000016 17.3724525800000009  8.8105603299999995
 29.0873913199999983 26.7858871500000006 20.4052516900000001
 21.0651366600000003 16.7518119799999994  7.7039895800000000
 15.9529516099999995 21.2576399500000015 32.1546283899999992
 22.8393281399999992 15.5879776299999993 12.1399864999999991
 21.7531559700000017 30.2924565399999999 15.3170904100000005
  9.3385592499999994 13.1653858499999998  0.6399471400000000
 10.5915577600000006  2.3113047500000001 31.0989813200000000
 25.5789821699999997  0.9533548300000000 28.0346104899999986
  7.6984483800000003 27.8218966499999993  2.6169621200000002
 23.2823702600000004  6.7969852599999996 31.9313059099999990
 14.4583974400000006 32.2858192599999967 22.7643744499999983
 15.8413767700000001  1.0193769800000001 17.6689836400000004
 22.6080687000000005 13.8106917500000002 31.2962666499999997
 16.3535237299999991 33.6733613999999974 33.1851200700000035
 17.3130630100000005 25.6499428899999984  3.5902088999999999
  0.6410052800000000 28.3757296799999992  0.8888140000000000
 28.2968179800000001  4.6197571000000002 14.2576160000000005
 17.7520712600000010 19.0616571999999991 14.2726252000000002
 25.0118008900000000 23.3375324400000004 23.9077485699999990
 17.5302107999999990  0.2529824200000000 16.8754552400000009
 20.7761515299999999 24.7786999899999998 25.6107910700000012
 10.5654386799999997 18.3279050800000007  2.1006946800000001
 26.3754661000000006 17.4587289800000001 23.8579906900000012
 21.2495498900000008  1.1850412600000000  1.9884030500000001
 29.0900729300000016  1.8557954600000000  5.3542764399999996
  4.3241942499999997 16.7327728499999999  2.7132559800000000
 31.6932388399999994  3.2651497200000001 32.3712759000000005
 24.0340295799999986  4.9351544699999996 30.1411792900000002
 27.8003930100000005 26.2052474699999998 26.5942876699999999
 20.1928310400000015 20.9112498799999997 20.3767673599999988
 32.3289465499999977 12.6046982300000003 27.1632353900000005
 27.4972417100000008  6.1413430299999998  2.5522461800000000
 20.6015498599999987 30.2484406300000011 10.5416670400000001
  3.7978980899999999 26.2731497300000001 12.8275875799999994
 28.2643904600000013 19.6103808199999996 31.6704621499999988
  5.4573154700000002 21.1010781099999996 25.8197924599999986
 23.2519395200000005 20.3475499500000012 31.2719772399999982
 28.1215332899999986 33.6099358399999986 17.1915993399999998
 14.2100414399999995 23.1663991799999991 17.6710266800000007
 21.9454029300000002  6.3870132000000002  1.5308119099999999
  3.3558233500000001 16.3231111800000015 12.5296240700000006
 25.3917962800000012  4.9200837899999996 21.8482124000000013
 17.9057271100000008 11.5554879199999991 33.0854612199999991
 22.3466979099999996 30.9517641800000014  1.3005940000000000
 19.0833080200000005 28.1578638599999991 14.2178261300000006
 14.0037664100000008 21.3019989999999986  7.6972250100000004
  7.2606941200000001 20.4860860400000000 14.6480591400000009
 34.9298999299999977 11.8281937799999994 31.4528518699999999
 23.0814390500000002 24.7461595099999982  3.7028550000000000
  3.8839481199999999  2.5160646099999999  7.4978629300000001
 16.5823457300000001 29.4846522200000010 18.5497838100000010
 21.2164370700000013  4.6577538599999997 22.8691946699999988
 27.5547491600000001 27.6690672599999985 24.0134889600000001
  9.7089975600000002  9.1219998199999992 13.4509638900000006
  5.3500196899999999  2.7810049399999999 15.3500197200000006
  2.7814745200000002 23.2422870099999983 33.1177938499999982
  5.7612949300000000 20.0838281000000016  8.8988461099999991
  7.9065050699999997 24.6307291200000016 23.6642894199999994
 20.7123028699999985  1.6744140700000001  1.8772852000000000
 16.5323348400000008 28.9516118300000009 19.7400329399999990
  5.7336234299999997 10.0089959799999999 11.1955145999999992
  3.0139350299999998 10.2060488500000002 33.0630935000000008
 31.4124115999999987  8.4016920699999993 17.2386012800000010
 34.1717055000000016  8.8543279300000002 29.6895989399999998
 33.0894656700000027 19.6495603599999988 25.1609013399999988
  9.2688101899999999 30.8927837200000006 25.0159898100000007
 23.7406545400000013  9.1809028799999997 23.4347081099999990
 12.1392169499999998  8.8193372700000001  1.6014600900000000
  0.7396575100000000  6.4237932200000003 24.6926746799999997
 14.7834172699999993 34.8940247800000023  3.8745317500000001
 19.2551777599999987 11.7726148399999992  7.3376054699999997
 18.1352128499999985 18.5222898100000002 14.1248995199999996
 27.1861957099999998 28.3913655399999989 18.6806061300000010
 14.9472643000000005 23.6710381599999984 29.1383072799999994
  7.5304153500000002  3.6907933800000001 11.1642749999999999
  2.9699789200000000  6.4356486899999998 13.9474967400000001
 20.5776251600000002 13.1460234600000003 25.2162262599999991
 29.1146938900000016 30.6601999499999991  0.9805488900000000
 30.0851444599999986 31.0229745699999988  8.1336733399999996
 27.6478825899999983 17.9627198600000000 24.4327262099999984
 20.8294693600000009 10.8915234400000003  3.8345083799999999
 11.5823791699999994 30.0467811900000008 16.2514171900000015
 32.5687037200000020 17.2034792699999990  3.8760217899999998
  9.2983071699999993  1.6486268700000000 23.4717780299999994
  5.1733467800000001  8.4392507699999992 18.4876795899999991
 27.4309434799999998 11.8669894599999992 18.4918583599999984
 27.6634115899999991 33.9586733100000018 33.4223051999999967
 13.6835195400000007 28.9129435699999995 34.8425558799999990
 13.8366205000000004 12.0807944099999993  6.9116626099999996
 34.3135367000000002 12.6113248500000008 33.5367353299999991
 11.9106135000000002 16.6810789499999998  8.8938387599999995
 28.7480694099999994 28.8026459000000017  1.0697150099999999
 23.7002049600000007 29.3447459100000003 12.1444538400000006
 26.8357033899999990 17.6668305900000000 21.4217547400000008
 25.4319214799999997 14.3043528000000002 33.2575571900000000
  9.7637730000000005 19.7328460600000000 24.9437490599999983
 34.5904418599999985 11.5563265099999999 12.1796174300000004
 22.8301644699999997  1.5742657200000001 33.6839190000000031
  0.6266379100000000 31.9033587300000008 34.7501590700000023
  0.9234623000000000 15.6309318899999994 34.0723445300000023
 18.8944521200000004  4.0568064799999997  2.7464323199999998
 29.2880038700000007  3.4809718900000002 19.6945204700000005
 10.8055014699999994 28.0632887800000006 34.6945952000000020
 12.0615946100000002 34.2205968199999973 25.5707808999999990
  3.1145176600000002 20.6983652900000017 12.4253906199999999
 23.5401970100000000  0.0910990700000000 26.1020453699999990
  7.0765310299999999  5.2570258000000001 14.8326804200000009
 22.8597553299999987  8.9079049099999992 20.1577968900000002
 27.0922846600000007 25.0283023900000003 20.6781928499999985
 23.3871525700000014 17.8732129300000011 25.0896634499999998
  1.9736228700000000 25.6795082299999997 10.4948847900000004
 22.5287150400000016 10.1136669300000008 20.4000269299999992
  3.2525691900000000 30.9304447200000006 27.9844823100000006
  5.1942586300000002  9.9048240399999994 10.3777004500000007
 13.0113861400000008  2.3668905699999998 20.3298231899999990
 13.3383392500000006  2.4678333399999999  1.8750144799999999
 13.3682973599999997 15.9737777800000007 21.2832004099999992
  6.7493198400000001  0.8185135300000000  1.7568554800000000
 22.4701036800000011  5.0325952000000003 22.8274561899999995
 26.0562195000000010  6.8811451699999999 11.4068314300000004
 19.6158439300000005 18.4888784500000014 12.5801659200000007
 34.8486976900000016 12.0620091400000007  6.1875524700000000
  9.1944080600000007  5.4162824599999997 31.4593022200000014
 26.4924625599999999 23.8182744100000008 18.7380070399999994
 34.6843543800000020 14.9440427200000006  4.5260633700000001
 14.5470411100000003 17.1200065099999996  0.9493606800000000
 30.9048673299999983 18.1051849500000017  3.8434074100000002
 21.1484045700000003 16.2355358699999996 10.6513584300000002
 27.3810800999999984 13.8132254600000000  3.8803244200000000
 11.6125895099999994 12.7919567999999995 24.4179287500000015
 17.1285463600000014  4.4786726699999999 23.0514935399999992
 11.4519574899999999  8.0495272799999995 13.4049176299999999
  1.4506480500000001 21.0418160500000013  9.8023479899999995
  3.0626622299999999 24.1640979700000003 20.9945811599999992
 20.9255035700000001 14.9385259200000000 16.8050710300000006
 27.8287730499999988 13.1886047899999994  5.8806799300000003
 31.5875998200000012 12.7901635500000008 29.2787372599999998
 22.7371627899999993 13.4950060399999998 10.5664589800000002
  0.4760279700000000 20.6021615300000001  5.5287679699999996
 32.0032824899999966 34.1688673700000010 31.1539377799999997
  4.2322903299999997 12.1035917200000007  5.0660093599999998
 24.4193045300000016  5.2512021500000001 21.9545411799999997
 19.9736792700000017 12.6274693800000009 24.8779358500000001
 13.4677605899999993  7.6522460199999998 21.2988912399999997
 25.4650539999999985 11.1625390899999992  8.7944482700000002
  3.2921191900000002 30.6471519800000003 26.6833343300000010
 11.8000364999999992 13.2134730800000000  3.8421387199999999
 34.8254223900000000  5.8740508699999996 25.1730114500000006