Na Cl 
 1.0000000000000000
    35.0000000000000000    0.0000000000000000    0.0000000000000000
     0.0000000000000000   35.0000000000000000    0.0000000000000000
     0.0000000000000000    0.0000000000000000   35.0000000000000000
 2500 2500
Cartesian
  0.9854835600000000  8.0221578000000004  8.4061512300000008
 22.1836393799999989 20.4271418699999998  3.9734813000000000
  2.3001432799999999 18.5080713000000010 20.1542666299999986
  2.7592096900000000 34.0372761200000014 24.4997009100000014
 26.4732678099999994 16.2121247199999985  2.1802525899999998
 33.5052930100000026  8.4596040600000002 10.5653664099999993
 17.1133308399999997 28.7513527400000015 13.9855146500000007
 29.5447557799999991 13.7104166999999997 25.9734236400000000
 15.3310509300000000 33.9729922599999981 29.0808511500000009
 21.8652744000000006 24.6668707900000008  1.0974130200000001
 34.2207096699999980 27.4674232200000006 29.9820962800000004
 14.0921460300000003  1.6983609500000001 19.3525114699999996
  2.6603138199999998 16.8943387899999991 23.1520168999999996
 20.9480162499999985  8.3090827199999993  0.7532142300000000
 24.2715118600000004  6.2997737599999999  5.2975498900000000
 30.9209390800000001  8.2230456899999993 24.7288898500000016
 28.4516593399999991 17.0384673900000010 30.5214631099999991
 14.2305583400000000 17.9939982399999998 25.1283449599999997
 22.0937992700000017 15.4842727799999995 19.1725294300000009
 22.7020709099999998 18.7058058199999984 18.4783979000000009
 11.4334817500000003 12.5277613100000007 29.0843235200000017
 10.2253751499999996  7.8800751000000000  0.4222496700000000
 26.7501937000000005 15.5055563400000000 26.8854628300000016
 13.9737881000000002  7.4566640599999996 24.1528562399999984
  7.0548746600000003 26.2783794300000011 30.7231536900000002
  9.0440009700000008 32.5243299699999966  6.4138041699999997
 31.8066841300000007 19.9401770599999999  9.5558894100000007
 25.8333489699999994  6.0960971600000002 12.1049554199999996
 27.9856882599999999 25.4626375500000002  5.5493567500000003
 28.0388816399999996  9.4837855500000003  3.9838149199999999
  0.9774122900000000 12.3684037999999994 10.7626666600000007
  8.1385118700000003  3.9690246000000000 32.3964675300000025
 27.4298452600000005 28.4092410700000002  4.1146125700000002
 29.2935202200000013 26.1942943899999996 17.5057561499999998
  9.2436874400000004 28.6548402399999986  1.8999700500000001
 12.7966134100000009 32.6815430799999973 23.6946001399999986
  5.1445697800000003 14.7842267199999995 13.4984068100000005
 32.7232163199999988 24.0966163299999998  6.8306840700000002
  3.3072181100000000  4.4148273099999997  0.0025400500000000
  7.6906137899999996  1.1460513500000000 11.6850570800000000
  5.7543548199999996  8.4414207200000000 19.9580516299999999
 29.9737344000000014 13.5540723700000001 23.2943630599999985
 33.3598818700000024 14.5346150999999999 18.2759646499999988
  4.1379193100000000  1.0098758000000001 32.9826018999999988
  8.5900882099999993 33.6125668899999965 26.4117987399999983
 33.1014074899999997 10.3556260600000005 27.0071646200000011
 29.4157034800000012 14.7284407900000005 20.9043392700000012
  9.2301604699999995 11.3070309400000006 22.2690886200000016
 21.5724359999999997  2.9318054000000000 29.8533759100000005
 20.6888843999999992 28.0800429200000004  1.2813348499999999
 10.3948888600000000 21.8970760300000009 34.1567850200000009
  3.0858346999999999 28.6238765099999988  6.4924333499999998
 23.3272871299999984 26.7148678799999999 16.7844664700000017
 31.5280165100000005 26.3734243200000016 18.1424868199999985
  0.7760082900000000 22.3713479399999997 25.2448471699999999
 20.1463581000000005  9.8405760900000008 15.5623028800000007
  0.6245475100000000 31.7700044900000016 33.4654055800000023
  3.0715965800000000 34.3237143400000022  8.6668775599999996
 29.2111066900000012  6.0701580300000000 31.1459387499999991
  9.7925627300000002 13.6018039200000000 20.5184607399999983
 33.7696512200000001  6.5280557600000000 27.0332263799999986
 12.4357162300000006 22.0826959400000007  3.8707197500000001
 25.1867972000000009 24.5005614899999991  5.9369460500000004
 32.2522584700000010 18.7080415699999989 21.0545967800000007
 14.6080483599999997 27.4688437699999994 18.8572183399999993
  8.2686555800000008 21.2942491199999999 17.4449571500000005
  2.3947633800000001 33.7881512599999994  2.4582408099999999
 15.6532947399999998 24.9247278899999998 29.9015713199999986
 25.7091024200000007 17.8844042600000002  3.1824002700000000
  6.6013141500000003 33.2869125200000013 13.1386780900000009
  6.7627253700000001 16.1253231200000009 13.3056560000000008
 13.1603324599999993 20.7076792199999993 28.9646718900000018
 29.2404983099999995 10.0550894700000004 15.8887148800000002
 26.6309752800000012  6.8015508300000000  3.6647867800000000
 29.0714913499999987  4.5551740199999999 13.8098152699999996
 16.5652396400000015 21.9825470199999984  0.6677662500000000
 23.1473097999999986 11.8357887000000002 19.1006605699999987
  4.8022315100000004  1.1049742199999999 21.3017718400000007
  3.8792872900000002 29.1815042399999989 33.5417596400000022
 26.3542029199999988 10.0884731599999995 16.9683273499999991
  6.6777239599999998 22.5066091800000017 23.5805002299999984
 12.4674281800000006 30.0654862399999985 15.6272786999999997
  7.6730689400000003 21.2696671200000011 24.2952284399999989
 19.9044691100000009  4.4124026599999997 29.2515744799999986
 21.2122869099999996  4.9060204799999996 30.4861475099999986
 15.6812181400000004  4.2333127099999999 29.2867767500000014
 17.8567670900000017 28.6844498299999984  9.5483466799999999
  4.0626414700000000 30.8152219100000018 16.4345990999999998
 31.3070560799999988 22.6915951599999985 17.6399289099999983
 24.2851241000000009 25.0807478000000010 27.1281960899999994
 33.5917168399999966 25.9849411900000007 33.9066290000000023
 33.7135451199999991  8.5527723899999994  1.4454879899999999
  4.3167225900000004 31.1566432199999994 14.7026739600000003
  7.8412357600000000 12.6494036699999999  8.5275159200000008
 31.9600069299999987  6.8363928200000004 29.2542007300000009
 30.3516790500000013 30.6697239500000016 21.0504227300000011
 14.4547439700000009  5.8818869899999999 16.8746055000000013
  6.4946320300000000 25.2805852800000004 25.7968761800000017
 23.0979554299999990 22.3369115399999991  6.4722791099999997
 34.5950209900000019 18.5177112599999987  7.1731020699999997
 18.3265015499999997 13.5115481499999994  8.5897353100000000
 27.6813138199999997 19.8413654999999984 28.8299553700000004
  5.0598972099999999 26.6924556200000005 25.1015488100000006
 26.7308195600000005  4.8843370300000002 16.0525151599999987
 14.6223777100000003 23.3021525400000016 24.2777824399999993
  6.6894274100000004  9.2065521199999996 34.5214577300000016
  7.1400229000000000 22.3648650000000018 21.2859778099999986
 18.4290731799999996 22.4328703900000015  9.2526619799999992
  4.4899505399999997  2.5987610900000000 32.3775751800000009
 24.9060615100000007 31.1757289100000001 20.4757314400000006
 15.6182513200000006 30.9499005199999999  4.9780554700000001
 16.1783572000000007 29.6494813400000012 23.8328447399999988
 18.6215401699999994  2.2256604499999999 26.6751037199999992
 13.4681380700000002 13.9965748699999999  5.4337826700000003
 10.5854115699999998  4.0122308499999999 23.5639478900000015
 14.2721282600000006 16.6596170100000016 33.1830928799999967
 18.2419818599999992 27.9891740800000015 14.0487247100000001
  6.9161936900000001  5.4673966700000003 15.5358288800000004
 10.6759283200000006 20.3272840700000010  5.6633390700000001
 18.7396693399999990 27.6225751700000011 12.6209557300000004
 20.4029957000000017 18.1487255099999985  0.6295947800000000
 11.5995513100000007  3.6588220699999998 33.8225492099999983
 20.5846246899999983 25.7871538099999995 34.6941656799999976
  4.8426298699999997 15.0801914499999992 17.7776414199999984
 28.8193327900000007  1.5262486799999999 31.6615134599999983
 30.0566469299999994  7.0649069000000004 19.8902657400000002
 10.6962441699999999 11.7757699299999992 25.3652486599999989
 13.7341547500000001  4.9388754800000001 22.6802481699999987
  1.9309542399999999  8.5479233800000003 24.9482135499999984
  4.6250527600000000 33.2617481799999979 10.2016833099999999
 29.6914686699999990 29.5139035199999995 20.1765128000000011
 26.6505788400000014 21.2785092200000001 32.9044410600000035
 24.9409343499999991 22.2836789499999988 21.7920725500000003
 19.3634232799999992 11.0549985599999996 21.3608745499999984
 17.2185873399999991 12.7973678799999995 10.3619830799999999
 28.8497054599999991 21.9996966100000009  8.9009717300000002
  8.6318067500000009 34.7760888099999974 16.7246993699999997
  7.0222484600000001  2.9298827099999998 32.5386885500000034
  2.7385306699999998  1.4849657400000000  2.8191295300000001
 26.1099758800000004  0.3646866600000000  4.2886662199999996
 14.6131212599999998  7.7289974299999997 16.2597384699999985
 32.4244353799999985  7.4854178999999998 17.4186358199999987
 15.0122541399999996 30.9554072200000014 27.5292156000000006
 18.5266225599999999 16.9453914200000000  6.1936627499999997
  6.8897558400000003 16.1263385300000017 30.3716020100000001
 15.5150238100000006 11.0050980400000000 22.6828402099999984
 10.4953821600000001 30.8880209100000016 14.9674937000000003
 13.6666368299999998 25.1652259700000016 11.9528884800000004
 27.1966034199999989 28.3136142399999997  6.9145875099999996
 13.4722925000000000 13.8200760599999999 14.0183470999999997
 21.3597471100000007 33.2696951400000032  3.7662271700000001
 18.9800973599999985  8.4962976799999996 32.2751637699999989
 18.6774016100000004 31.0888128899999998 29.6781959200000003
 16.4387439899999990 30.9703123699999985 33.0399473599999993
 27.3952925100000009  7.6811372499999999 16.8738410700000010
 28.6468251299999999  7.1898805200000000 20.3219342000000012
 20.7481392400000004  8.9761395400000001 11.9772069900000009
 15.9178201999999995 25.8041766400000014  5.7967986600000003
 21.7950606100000002 34.5836304099999978  2.0762666900000002
  0.8143090300000000  1.0918630700000000 10.9425580999999994
 21.5740172399999999 29.5078074999999984 22.7205736599999994
 14.6814620700000003  1.3330153800000000  3.9894153600000002
 25.1039031600000015 31.3003555599999999 15.0758547699999994
 14.8911340899999995 25.2906227699999988 19.4969656600000008
 15.5019182900000008  0.7406616400000000 23.3001845699999990
 26.2021371999999992  9.3199325300000009 15.1059979099999993
 31.5069254799999996 21.8966163400000013 26.4307889500000002
  2.2698244700000001 33.9399386199999995 33.5484518199999968
 33.8296947799999970  0.6801044500000000 20.5154549400000015
 18.2511420199999996  6.9439925599999999 17.6829364300000016
 12.1126622400000006 17.5142517600000005 12.0292986899999992
 16.4231481499999994 13.8510010099999992  8.7739472400000000
  8.7313210600000009 27.3130315000000010 25.1203716200000002
 28.0857741899999986 27.6068789499999987 28.8145530799999996
 26.1936944999999994  7.4234750900000002 26.3458009500000010
  8.8765491000000001 18.1607703299999983 28.0668533700000005
 24.6045518500000000  3.7029849100000001  6.0673877500000000
 19.5858897300000017  5.0486755199999998 13.0894003899999998
 18.5523816500000009 29.8783815500000003 20.9586916599999995
 12.7307893700000001 11.3769769899999993  7.8523232099999998
 23.9961557700000014 33.3900503400000019 31.5760827199999987
 29.2222553199999986 18.4452167799999991 13.7584572999999999
 28.3919217300000000 28.0284998399999985  9.9968003799999998
 16.2239211300000008 25.4423779600000017 15.0464528200000007
 10.7325355099999999 26.7243277500000005  0.7764536100000000
 29.8557440000000014 25.4893374199999982 34.2939998200000034
 34.2549851400000023  8.5352763300000003 22.3892289899999994
 10.7717134800000007 20.1884703399999985 17.6209801599999984
 20.8135670300000015 23.6210914999999986 29.6847971400000006
 22.3854720100000009 17.6280967100000012  0.4214639800000000
 13.5451913000000008 14.0302007300000007 10.5836158699999991
  8.8319509200000006  3.5991765600000001 11.3605201000000005
 11.2613898500000005 25.1791669499999990  1.2588878900000000
 18.1287892900000003 15.5615955899999996 23.7371143700000005
 19.6812827699999993 33.3195501599999986  1.6794687100000001
 16.8306451800000012  2.6535597499999999  8.3787615899999999
 16.8460303200000006 16.2315955500000015 14.4263826900000005
 19.2138149600000006 16.5880085800000003 19.6602678799999993
 30.1222361599999999 24.4230654200000004 33.4605604200000002
 26.6389679400000006  1.1341745700000001 22.0719438500000003
 33.1602057300000013 18.5777719599999998  1.6133176700000000
 25.0300895399999987 15.7149371599999998 10.9488893399999991
 22.9832120199999999 18.8444711399999996  4.0264146600000004
 16.9511249500000005 32.5570082099999993 30.6369367900000000
 29.9966632000000004 13.9184292700000007 22.0407467500000003
 33.8306406100000032 16.5766734999999983  4.1515308700000002
 19.7793450799999988  1.4526995300000001 20.5210423499999983
  7.1587684700000001 22.4216988899999983 31.4932893599999986
  2.7143452199999998 15.0000557000000008  0.9361511600000000
 18.8925287399999995  6.7306143599999997  1.4355300200000001
 11.9531030600000001 30.8030726299999991 22.2417684999999992
 17.4031081999999984 34.0395841500000031 28.2907479600000009
  7.6009989500000001 34.9893449099999998 30.9198752299999988
 25.3430007400000008 24.8134758499999997 15.0886257900000000
 19.5335764000000012  0.8185436500000000  2.2630650499999998
 25.3342407799999982 17.5848347700000005  8.3179890000000007
 10.4411353200000008 29.1613168700000003  9.2526081799999993
  3.5857309700000002 30.3804079700000003 23.5166753799999988
 24.7630697300000016  7.9129544899999997 28.0261390199999987
  5.3185169800000001 33.3148371400000016 27.4678071400000015
  1.4346246800000000 31.7369585500000007  3.0622978700000001
 18.0402770799999992 32.9368706599999967  9.9850988500000000
 29.5563010900000016 32.7524854999999988 26.0238387700000011
 22.6582016000000017 16.3943191500000012 19.3218889000000011
 12.9868056900000006  9.2431845500000005 20.2026745000000005
 11.3502869600000000 14.2728556599999994 28.8850710299999989
 21.3888844899999988 32.9817028900000011 28.4804997200000010
 11.7587776999999996 19.7767690099999989 28.1567160799999989
 29.9270781200000009 34.4020396000000019 30.0796397999999989
  8.5060548100000002 21.2632311099999995 21.1252571099999997
 12.1962290200000005 22.0211742299999997 19.8752314599999984
  3.0152210799999999 31.8207589499999983 11.4956315300000007
  7.0791433899999996 14.1630356099999997  3.1395414599999998
 21.2733226900000005 15.7344967800000006 24.6873515300000008
 30.3171771099999994 10.7957118100000002  3.5284712800000002
 13.0168600199999993 24.3663699300000012 25.5794023400000015
  8.0150878100000007 29.5808520699999988 25.3806649600000007
 27.8359311799999993 28.4952791199999993 15.1561941000000004
  0.1541955900000000  1.5653361900000000 23.6053838200000001
 10.6858266700000009 11.6888935499999995  0.2338936900000000
 11.0511741699999995 27.0843125700000016 31.0413693799999990
  2.2951380700000001  4.3855195399999998 32.4269420500000010
 14.6150375500000003  4.9360330699999997  9.9078162899999995
 25.6683057699999999 32.2150586200000006 23.4901981900000010
 34.7610355699999971  8.7248300000000008 23.2177485200000007
  5.6994393600000004 30.4773026400000013  7.0254386300000000
 21.5470080199999998 30.5638334000000000 26.3479840699999990
 10.5682508599999991 30.5922099400000000 13.2724479599999992
 15.0327873499999995 26.0569291999999990 18.8091189000000014
  4.8612957300000001 13.7972683200000006 15.6886896799999995
 24.8075248799999990 20.0706006700000010 31.5854662300000015
 11.9309135600000005  7.8641335000000003 12.4916634799999997
 17.3880525800000001 25.9997220300000009  2.3281506099999998
 34.2273591800000005 34.2257848599999974  7.7662000100000004
 11.5236008900000009 22.1601908700000010 11.3279307700000000
 23.5325067799999985 10.8413891099999997  1.2267757699999999
  3.4203694400000000 16.1491068700000007 28.0391877200000010
 14.6280580699999998 13.7719614299999993 10.3556910900000005
 28.1001170800000004 23.6678176799999989 10.0116853300000006
 21.3952623799999984  0.1748650800000000 33.9574016600000022
 12.0497429700000005 10.0301466599999998 16.6748804799999988
  9.7162940399999993 26.7540058499999986  9.5764022099999995
 20.5919194499999989  8.3901240200000000 32.8144099900000015
 16.7887842800000016 34.0973210900000012 18.6755808899999991
  0.4880612700000000 12.8457565999999996 18.6312009100000004
 24.5937476199999985 32.1161914600000031  6.8299130600000000
 25.3487463400000017 16.3797981999999998 20.2683422299999982
 30.0279321999999986 14.4565423400000004  1.1070902800000000
 21.8662807599999987  6.5807895900000002  3.3305696899999999
 11.8847448599999996  1.9067789300000000 22.2333934000000006
 16.6428830499999982 31.9354698100000007 14.4410478599999994
 20.6913055800000016 33.7729368299999990 26.7492737200000015
  0.0434290500000000 29.9120067200000008 26.0970201000000017
 27.6167801600000011 20.2240990799999985 21.4332014999999991
  7.8175783699999997  0.0395963800000000  0.4962919000000000
 11.1779289500000001 22.4519217200000014 14.4482899400000004
  2.4089569000000002 27.3385863899999997 34.6213814299999996
  6.5576355099999999 34.1800501299999979  9.1025911399999995
  2.2493018999999999  4.0170143899999999 33.9608739499999999
  0.4084741000000000  5.2242380400000004 23.7687857399999984
 26.9820049900000001 26.5578724299999998  3.1619111499999999
 12.2407536799999992  0.3471016800000000 23.7378837400000009
 32.6120883299999988 11.3684981799999996  5.3488525700000000
 18.1651104200000013 31.0108845100000003 14.9360047199999997
  9.4313860599999995 33.3054525499999983  9.7410700000000006
 23.1634173499999996  2.5554581000000001  4.5843622699999997
 14.3767364700000009 24.8097999999999992 23.3085973300000013
 27.5953982300000007 10.8580408300000002  1.0921837700000001
 16.3325394800000012 30.9910224999999997 31.1151766000000016
 17.7731786800000009 23.8140316399999996 17.4298436000000017
 28.3813791900000005 25.8400867800000000 14.3385732000000008
 13.3998247399999997 20.8543909700000007  9.7489841100000003
 16.1760065200000014 25.1415779999999991 34.5014086300000002
 20.1748335300000008 33.4272042799999980 26.0222852099999997
 31.5475945600000003  5.4216933300000001 17.3997955600000012
 13.3639280599999992 12.5388767600000008  5.9016751999999997
 34.4551106199999992 12.0441744800000006 21.4405447299999992
 26.2351953500000015  4.9282085100000002 18.4004335899999987
 31.0872905099999990  4.0916034200000002 27.5787233000000001
 10.6025665900000003 12.3366526699999994  2.1213656500000000
 23.7924585600000000  4.8509433700000004 14.8052618700000007
 17.0362070000000010 27.5310927700000008 15.0762431899999996
 21.4192652199999998 18.5904687499999994  5.0083149899999997
 34.7499582800000013 32.5487318799999983 31.5366845600000012
 32.0574140299999968 33.9575667300000035 14.8240343499999998
 17.5452876499999988  8.6494921799999993 17.0150582700000008
 22.0843237200000004 31.2287717899999997  1.9674751600000000
 27.3549594999999997 29.8043509600000007  1.7265373799999999
  2.9137496999999999  6.3911515400000001  1.0839511799999999
 17.9674963800000000 34.7115914999999973 17.7182810599999989
 11.1498591600000001  5.6829611800000004 33.5286259399999977
 15.6161537799999994 30.6965680399999989 17.2190097500000014
 19.8969022299999985 17.2357413999999984 21.1056282400000015
 32.2938683300000022 18.0450454299999983  8.0785005499999993
 10.3587954599999996 10.2753121200000006  7.1708750300000004
 15.8965775100000002 18.7782419300000001 10.9121246700000007
  0.0793846500000000  4.2177522999999999 12.7629738199999991
 27.3010667799999993 34.0294442100000012 32.8687789800000019
 20.5682667099999996 30.8586586800000013 11.4764452899999991
 34.6159814800000021 20.8006705399999987 16.8697165899999995
 29.3267942700000006 25.4312273399999995  2.6379754700000002
 26.4536615799999986  1.6902429800000001 22.9136943700000018
  5.4613006100000003 18.0793418899999985 24.4991663799999984
 17.4894176700000017 14.6428041300000000 16.6089315199999987
 21.3121087399999993  2.6116148099999998  3.4101763300000001
 19.8336013099999988  3.3371831799999998 18.0377368300000001
 25.2429697799999992 23.5931764699999995 15.5170086900000008
  9.3650752799999992  3.8201783400000000 15.7372917099999992
  1.6618459400000001  0.6446354500000000 19.3879521799999992
  3.3122863800000002 19.5971868499999999 19.9194460299999996
 11.1294909799999999 13.3549088099999995  0.9523958800000000
 11.9175334799999995 27.9851915099999999 17.1137407500000016
  0.6407882000000000 24.7273502600000015  2.5758042400000001
 31.5417969300000003 12.9810090099999993 16.8183877499999994
  6.6429766299999997 33.5081395799999981 21.3018862800000015
  5.8027740600000000 17.2236961899999983 28.6617955100000010
 13.7971257499999993 13.2924119399999991  0.5675512000000000
 18.8330510000000011 22.0880739099999985 24.2581626999999997
 26.9404635600000013 28.3710709299999984 27.5890418400000001
  9.0261829799999997 13.0572714500000000  3.5612733400000001
  4.3209850999999997 32.7965273300000035 31.2347995900000015
 33.2767729400000007 17.7227354099999985 16.0140900100000003
 33.8107349799999994 32.0228276400000027 12.6640859999999993
 10.2934473799999999 31.9701171899999999  1.7595481600000000
 32.7260056599999984  0.9771551700000000  8.0469957500000007
  5.8575655299999996 28.1038086599999986 15.7121817499999992
 34.6386580300000020 16.9255223400000006 22.2539520800000012
 12.1725465600000007  8.9900734700000005  1.1648717000000000
 12.9986493500000009 33.2996863999999988 17.8293308400000008
 22.5634212100000013 33.4202072200000018 13.4227911399999993
 21.8506880499999987 24.5140714300000013 22.9985058900000006
 30.8885385600000006 23.6675596900000009  5.6757593599999998
 17.4875642499999984 18.4922891999999983 34.9045640900000009
  6.0087080700000000 13.3565331000000000 28.2518284199999989
 18.4801782400000008  6.3557262799999998  0.6916575500000000
  4.6884588999999997 13.9287527900000008 20.5481835500000010
  8.3209704000000002 25.5495818999999997 31.8229703099999988
 13.6620417199999995 17.9351228300000010 15.6094479400000008
 22.9915287699999986 18.6240522199999994  9.4456746599999999
 28.4539540200000012 20.6051715699999995 21.1184971300000015
  3.5812178000000001 24.5275892900000017  5.1931922799999999
 26.9825949700000010  1.4736083600000001 21.9356659600000015
 17.7377885100000015 24.0114940700000012 11.1808316500000000
  1.2375944999999999 10.2506803600000005 13.1848596400000009
 12.9359312099999997 29.1957901799999995 28.6456116600000001
 21.7952231300000001  2.3151898100000001 26.3950844199999999
 32.1838615400000023 24.1609069900000009  2.3637597000000001
  2.7092294699999999 34.0197586800000025 10.0840550400000009
 12.7130271599999993 27.8475566400000005 13.8845008700000001
 11.8060823100000007  9.8254556999999991  6.4338710700000004
 19.0709973300000009 31.2521006099999994  9.0549963000000009
  7.3228697000000000 15.4710881100000002  7.5779233000000001
 32.1569424600000033 26.7320005899999984 24.7338878000000015
  7.4523153899999999 21.0647416400000012 10.1127420699999995
  4.8559966799999996 29.7361601700000016 10.6439799500000003
  8.3709678299999997 25.8563619500000001  7.8752659600000001
 24.5949906899999995 18.0085668100000014 24.9822944199999988
 17.4222661499999987  6.0272158700000000  9.4171054600000001
  3.2914472500000000 19.3538576700000000 25.2857994999999995
  8.4322155100000007  5.2461101899999996  6.3738977099999996
 26.0987346799999997 21.4337456899999985 16.9638647999999996
  1.6757098900000000 23.6560751200000006 22.6546012899999987
 25.8839234500000011 16.1013922600000008 31.0996959599999983
  2.5899545499999999 24.3660623799999989 20.4104767600000017
  3.8829086600000000 20.0458083599999988 34.9010361099999997
 16.7139823099999987  1.9006687300000000 24.5394152400000003
 28.9519399100000001 25.2541013999999997  0.6822597000000000
 21.7387484999999998 33.1459612700000008 24.1710537700000003
 32.9007763099999977 33.3474474100000009 15.5486811700000001
 16.6844242499999993 30.1184363899999994 30.5604009800000007
  3.6592684100000001  6.3242024099999998 30.8699377999999989
 26.0445309800000011 20.4321156299999984 17.5673618100000013
 29.6498787800000017 30.5127291700000001  7.4390982499999998
  8.9242071299999992 14.1492017000000008 15.6329417300000006
 32.8516977499999996 13.4841678999999992  3.4099058499999999
 15.2875764600000004  3.2975623399999998 17.1302866300000005
 33.7273407300000017 30.4156532400000010 20.8840381599999994
 18.0293009300000016 23.4607382000000015 29.6269974599999983
 30.9463097500000011 14.6279046899999994 11.1940727899999999
 13.7813435500000008 28.0410658700000006 11.1941140699999995
 14.4751903199999994 34.5236737000000034  9.3839532699999992
  6.1026359899999996 17.0031064799999996 31.2106171900000007
 11.8430864899999992  1.7545804400000000 19.2334766299999984
 32.0417761200000015 16.1312603000000010  8.0919423199999994
 26.2745357099999985  1.1217191200000001 22.7331971899999985
 16.8451758399999996  1.8703644800000001  5.2158957399999997
 23.5596935199999997 12.7689316900000005 22.4349613000000012
  9.3945078399999993  8.4932041700000003 15.2824013900000004
 21.3201858699999995 33.3639810700000012 13.4297915000000003
 34.5057884799999997 23.7869626899999993 17.4819419899999993
 28.9990155399999985 11.4541710099999996 10.2520952899999997
  1.9654782900000001 28.7936489199999990 24.8574128499999993
 18.5377143599999989 28.3652809400000017  0.2768273700000000
 32.6375675399999992 19.5976838499999992 28.2724516799999996
 15.0953982999999994 28.3592343500000013  3.6516964600000001
 19.0623511100000016 25.9351676200000014  2.3621803099999998
 11.1644545900000001  5.9883356200000000 20.9567129200000011
 14.4740810799999995 15.8807534100000005 32.8226400200000015
 15.1108214800000002  7.5766062500000002 10.0212309699999995
  6.8289058599999999  8.4208574800000005 24.3516897000000014
 23.8488069299999985  6.8980910199999999 16.2157264400000010
 27.7142056600000011 12.6545319599999999 24.7187335899999994
 32.7554935000000000  6.5793275600000003 13.7583137799999999
 25.9797564600000008 16.7668162299999999 14.8804466400000006
 20.6667610000000010  6.2521351599999999  9.6356346399999993
  1.1113720400000000 23.8299417600000005  4.8312106999999997
 33.1582860700000026 21.3140342700000005 34.9739647600000012
 17.4256598499999988 28.0650906599999992 29.9786919199999993
 26.8751256500000011 15.2368038899999991 24.9630080200000002
  8.2758478600000007  2.1750658999999999 16.3326095000000002
 32.1677953800000012 34.1370018100000010 20.5894239200000015
  1.4478676500000001  9.3116608900000006 16.0846354799999993
 29.4685807900000007 28.4374015200000017 22.4074063300000006
  1.2782246300000000 28.1213554899999991 30.6217106600000015
 19.0910194500000010 17.7639475400000002  8.6662788299999995
 19.1482741499999989  0.0436750700000000 34.0468732599999981
 10.7989408400000002 22.7986288500000001 31.5550475299999995
 25.6839072799999997 14.4296951500000006  4.8864578900000000
 16.6978313500000013 10.4515425799999999 29.0761696500000006
 13.1833797700000002 23.0637296999999997  7.1050712000000003
 29.9316758500000013  6.6759704099999997 28.0346939299999995
  9.1009337499999994  9.3935318999999993 27.0906994700000006
 33.3860109399999985 33.6859295200000020 34.4174958999999987
  9.8536230800000002 24.8430820700000012 22.6803003700000012
  2.8083293700000000 19.5916631700000003 32.0828582199999985
  6.5980920400000000 14.1328982700000001 21.6212666300000009
 18.6281693900000000  8.6429880499999996 12.7000891100000004
 20.3976782800000009 33.7789062200000032 22.0768317399999994
 10.3110602799999995 12.9901296300000002 30.1086692199999995
  6.4035971099999998  0.2567005400000000  9.3660397500000006
 20.0301152100000017 16.1464049000000003 17.6271496799999987
 19.5046246399999994  4.2262440799999998 15.4842131900000002
 18.1710672200000012 26.1267001100000016  1.4487777399999999
 24.6075169699999989 18.5377824900000014 29.5102787699999993
 29.2552327100000014 12.6962046799999992 25.1119842499999990
 27.1192850800000009 23.8243581000000013 15.9865865300000003
 26.5597742900000000  0.1265250100000000 26.5058437600000012
  3.7161170800000001 16.7796881300000003 21.2184718600000011
  3.8564830899999998 30.9112881000000002 21.0190383499999989
 11.9775305200000002 21.3554641700000012 31.2863116900000016
 24.0405799400000006 10.0269690400000009 33.2686758199999986
 21.6345396600000015 31.7079856100000015  6.1141724200000001
  0.8958872900000000  7.1777234900000000 25.9987162900000008
 20.4246408899999992 31.9394607499999985 11.5168282000000008
 13.3315197699999999 27.8527295300000013 30.8251716599999988
  8.6601614799999993 21.3340438299999988 21.2746171100000012
  2.4897293299999999 19.8808756700000018 27.8774689199999983
 26.6201740399999984  0.2651592000000000 11.5306677400000002
  0.9326229000000000 29.5931462900000000 22.0097660499999996
  3.1379501400000001 29.5280362300000014 12.7049414899999995
 31.9516547799999984  6.4618511500000002 34.3322860899999966
 12.7322567099999997  1.0385317700000001 24.6034743200000001
 20.5928447100000014 23.9410023400000007 16.4263836400000010
 33.2299059699999972  0.0297010100000000  9.1848103099999996
 19.1069073899999999  4.7925055399999996 12.6406475100000009
  1.3626988799999999 12.8800324499999999 34.7053542499999992
 17.8887997900000002  7.0580432799999997  9.5333786400000005
 32.4948411499999992  0.7951964100000000 29.8660110000000003
 23.0468095200000000  2.7276047999999999 27.8538855100000013
 15.2537029000000004 28.9846485499999993 14.9881002799999994
 10.0013598100000003 22.8544069800000003 24.0181799100000006
 18.5497674900000007 20.9422402199999986 16.2313462699999995
 10.2367315600000008 23.7473772200000006 17.1689045299999989
 17.7783959600000010  6.5008684900000002 25.0966443400000010
 14.3013853999999991 18.3844104100000010  6.7857200799999999
 17.5974243199999982  9.9105734800000000  2.0083946799999999
 15.0894100699999996 32.7150214300000002 26.3651569499999994