Na Cl 
 1.0000000000000000
    35.0000000000000000    0.0000000000000000    0.0000000000000000
     0.0000000000000000   35.0000000000000000    0.0000000000000000
     0.0000000000000000    0.0000000000000000   35.0000000000000000
 2500 2500
Cartesian
 32.2946001199999984 30.3441847200000012  9.7125675400000002
 34.1226249600000031 23.9576298200000011 15.8844682499999994
 25.2578921100000002 29.3926230000000004 11.8146832400000008
 14.3811568800000007 29.1037233099999995 21.2777491400000009
 20.1297715699999991 11.0708597900000001  7.9404728799999997
  0.5277391900000000 14.7124848900000007 32.7335226800000001
 22.3156122900000007 33.4958318500000019 24.4459770100000000
 33.5356547100000029 28.7487018600000006  4.4322249700000000
 12.4051263600000006 32.9586771999999968 26.4876710399999986
 13.2871261100000009 16.7285945399999996  2.4884577000000001
 33.5085873700000008 28.8279186199999984  5.8282972400000004
 26.1916519799999996  8.0949063999999993  6.0918022199999999
  9.9199646900000005 19.8466184599999984 12.1164094900000006
 10.4943365400000008 13.3142218000000003 17.1257297500000014
 27.1398607699999985 19.6399971399999984  4.4319689499999999
  8.1020711399999996 21.5096892599999983 33.3474483800000030
 15.5648426200000003  8.3099567699999994 15.4434267199999997
 32.6729234000000019 18.8236136700000003  3.4749221800000001
 23.0170702799999987 27.9001713100000011 23.1791936800000009
 22.7081919200000009 16.5816687999999992 18.1075374899999986
  8.3825379699999996 10.3156153699999997 19.5474780700000004
 24.4638409699999997 18.7751758700000018 29.3809224299999983
 25.1632246600000009 13.3167969399999997 25.4060996000000010
  0.3159376500000000 24.9641082300000008 26.7670148499999989
 18.2186670600000014 21.1372266499999988  3.3682376199999999
 14.9696546099999992 14.9849816400000009 27.5864822200000006
  1.0065877500000000 12.7202955000000006 10.0064977899999992
  4.2083348799999998 29.4842819899999995 12.3273506600000005
 20.7825959599999983 28.0902894799999991 33.4953076099999976
 15.6349722399999997 31.9783852499999988  0.7209214700000000
  6.5272042299999997 12.7215753599999992 31.5171171699999988
 18.1882906099999992  0.6002285900000000  8.0419396299999999
 25.8792785599999995  8.0347285100000008  9.6820807999999996
 11.7319904699999995 24.5638990600000007 20.4515569200000016
 29.3171435600000017  3.2318766900000000 33.1516000900000023
 13.9426331200000000  8.8349157700000003 18.4293174499999992
 26.5384271799999993 26.3455661300000017  4.9298676099999996
 11.2849654899999994  1.4149768599999999 16.5160255000000014
 34.8405027000000018 14.3289062200000004 25.9268250900000012
  2.1492531600000002  2.4978650999999998 16.6188166099999997
 12.4507449599999998 29.6705852400000012 28.5260518300000001
  7.3530802000000000 33.2190029499999966 26.7826607199999991
  1.1786478700000000 34.5347401599999984 20.3778926399999989
 16.2416809200000003  8.9312577199999996 27.6485325800000012
 28.8870399999999989 19.4812390300000011 31.1843754599999983
 25.7984168099999991 13.9913416000000002 22.4782274400000013
  1.5686549299999999  9.3834870800000001 33.2673446700000000
 34.2618848299999996 19.4983548499999984  3.8500126400000001
 27.1625176199999991 15.4336761300000003  8.7946991499999996
  7.5086147600000004 22.2882030499999999 27.8286935100000008
 11.8518609200000000  9.2264650800000005 19.1985689099999988
  5.3476310199999997 32.6345872600000035  4.5081379500000001
 28.2745566000000004 15.4728178700000001  1.6499110800000001
 10.0555348299999991 23.3739327000000010  5.6869332899999998
 30.2877513799999996  6.2374596899999997  7.9850247300000001
 14.3105700700000007 32.7512089700000004  4.5690996600000000
  2.8580532100000000 15.3003730099999995  8.3692418800000006
 31.8481982099999996 17.6673359000000012 29.9144610799999988
 32.3473471599999982  6.8636795199999998 32.8617126099999979
  6.8037784400000003  6.1042981300000001  9.9385880499999999
 17.8493043500000006  8.2581560500000002 19.8287186599999998
 26.2745318200000000  1.0562515400000001  7.4195993700000002
 31.2066556800000008 15.2620109500000005 28.6179547899999989
 11.9660998799999998  4.2407170599999997 13.7316046899999993
 32.0800730099999996 29.7871296200000018 27.2875231900000017
 16.4022335300000002 12.3388608400000006  4.2340869400000001
  7.2992113300000003  2.8448454399999998  3.3173441800000001
 34.6036878800000025 24.1822524399999992 11.1167784399999992
  9.6953019499999993 23.9399100300000001 33.0677953499999973
  5.4364359599999998 20.1792418399999995  2.5176028600000002
 33.3512563600000007  9.5655642200000006 13.4378316200000008
 29.6360757700000015  8.5254873000000000 32.8650944899999971
 28.6430591099999994 13.8945104500000003  5.0372157499999997
 30.4851530100000012 33.9667152399999992 28.5829979399999985
 19.4463510900000003  4.8227727900000001 31.3423619699999989
 21.0776773000000013 17.5223537600000014  8.1996713299999993
 16.8760280499999986 30.4034466200000004 25.7272727799999998
  8.2736763999999994  0.6792190299999999  5.6343181600000003
 20.9853887300000004  6.4283177000000000 30.7355958700000009
  8.1597743699999992 11.3277756600000004 20.9255823099999994
 16.2618475599999996 32.8719792200000001  4.3546763899999998
  4.0461610600000002 33.8290177700000001 24.3016201000000009
 22.3290961699999997 15.1193889400000003 11.5699436700000007
 31.0433161899999988  0.0152313500000000 10.9932990799999999
 34.3777089399999980  6.1540765100000003  6.5638439999999996
 33.5260574500000033  7.4475444800000004 10.8801058400000006
 21.9388996100000000  2.0857401900000001 20.0352957300000014
 33.2152716200000029 34.0701986300000002 17.8283903200000005
  6.7561510299999998 10.6302939999999992 23.3513143300000010
 10.5399863200000006 10.5501443899999998  6.2767156599999998
  2.7601624299999998 15.0499884900000005  0.1565528900000000
  6.1844522399999997 27.0887894399999993  1.2841617000000001
 22.9057243499999998 11.5091558099999993 24.3817554100000002
  4.1631905099999997  5.7429831900000003 27.3185485200000002
 12.8449249600000002  4.6537358700000002 25.3387022699999989
 22.5690438499999999 22.9200550300000003  7.3649262699999998
 22.3157714799999987  1.1712370500000000 14.9811648099999992
 33.4370204700000002 16.0030492399999993 23.2484981399999988
 32.5081766799999983 14.9255070399999994  7.9968088899999996
  2.3669793299999999 21.8216074300000002 25.7561372199999994
  3.3982969399999998 30.1766603999999994 29.1314205000000008
 31.7842837799999991 28.4574970500000006 10.1530021099999992
 16.5064300400000015 13.5697507599999998  6.8010940199999999
 30.9872750699999990  3.1320786699999998  0.8462071400000000
 12.2034009999999995  2.5606830500000002 22.3999428899999984
 15.8401521600000006 15.4373563199999992  0.6475911000000000
 34.0636005400000030 11.9342555099999998 29.0323029999999989
 10.9165425299999992  4.3303020600000002 14.3867582600000006
 18.2461017100000014 27.2314108300000015 18.3217637400000015
  3.8832498100000001 25.7795629999999996 12.1153855600000000
 28.2851288300000014 18.1603184900000016 20.4728881399999985
  2.8310276000000001 16.0808324599999999  0.5511317700000000
 22.8715925099999993 32.8553854399999992  5.4630643900000004
 12.7232807399999999 25.1793162499999994  3.7682958000000002
 18.7474905700000001 19.0740775999999990 13.0221636499999995
  8.5044504199999995 29.2982584599999996  0.8299886400000001
 19.6191382499999989  3.8566451700000002 33.6354515800000016
 26.0346462800000005 29.3000535599999985 31.0001334200000009
  9.2424739299999992  8.2593610900000005  5.0817579000000004
  9.1049997600000001  7.7310012300000004 14.9377402200000002
  3.5997946999999999 21.7495948500000011  5.4405715499999996
 19.6860881300000017  9.0832590100000008 27.3342558900000014
 31.8386908800000015 32.8776852100000028 30.2553660399999984
 21.9369959399999992  5.0907208800000001 19.7458987099999987
 34.3195795000000032  9.1726317200000000 24.4212894499999997
  3.6117272300000001 12.2995244800000005  8.1079613699999999
 15.5068036399999993 12.8487842099999998 34.5162189799999979
 24.0924295700000002  6.4637197999999998 30.7386450199999999
 24.4069185399999995  7.0799149999999997 27.1313686099999991
 16.9121836300000012  8.0702264699999997 11.2963445900000004
 17.6635796800000016  1.7837186899999999 18.9600022999999993
 20.7586456699999999 10.5578133199999993 30.1684083600000008
 30.4393134200000013 33.5406862700000019  8.3141869899999996
 16.5406695100000007 29.0325081300000001 14.3641364500000002
 23.0413570099999987 16.0872384000000004  3.2157153100000002
  6.5271632600000000 12.0329331300000000  7.5071384500000002
 32.4759906700000016 33.9751206500000009 29.8527197300000005
  9.6604735500000007 33.5789478000000017 21.3756435600000003
 20.4412409100000012 30.9359852300000000 16.1037585900000018
  0.8705653000000000  1.5910722700000000  1.1515947700000000
 34.8533655600000003 20.5149042100000010  8.9950124999999996
 14.1750224599999992 29.6024561999999989  3.4813883500000000
 26.6940729499999989 17.2840162600000014 27.4612205200000012
 30.7333315999999996  5.1042103699999997  1.4636852800000000
 30.1585153999999989  4.1683724299999998 22.8354072899999991
 19.6903397799999986 10.5407104500000006 22.7205398999999986
 14.1141676900000004 21.8164418200000014  8.9376360500000001
 29.8490906900000006 18.6671517400000013 33.8192337799999976
 34.8621277800000016 27.7816205700000012 25.6969886000000010
 24.2873560200000007 27.5925747900000005 33.4044552300000035
 28.6790242500000012 23.3605009400000014 24.9393817099999993
 31.1884115900000012 23.6335115000000009 28.4277614300000003
  0.3863795100000000 18.8803520899999988 12.0775932400000006
 23.1096393300000003  8.7081469699999996 22.8261345899999988
  3.8440835099999999 32.5115492300000000  1.6078298700000000
  2.7966800100000002 33.8008704100000017  6.2290603800000000
  6.8177501100000004 30.9260944100000010 24.8687015000000002
 33.2660449600000021 12.4176273300000002 33.0624905800000022
 21.2791808700000011  9.1928047599999996 13.4696626500000001
  4.6201469499999996 20.8098523399999991 31.1883047200000014
 21.8373988899999993 11.1630715200000008 17.7429623599999999
  5.9683263200000001 34.6604433400000005 33.0711729599999984
 27.2039488300000016 11.7679369000000005 33.7154260399999970
  5.1653952900000002 14.7985563399999993  9.3363722700000000
 11.4087643599999993 17.1025548799999996 22.6398155699999997
 22.3802249499999988 34.4408026899999982 16.5708004299999985
 10.4428573300000007 23.1031912599999991  5.3354726699999997
  3.2891815900000001 16.2750102199999986  9.0967893899999996
  9.7393150800000008 28.6684925799999988 21.3547944799999989
 20.0308187400000008 27.9705618399999985 16.2328542499999990
  0.5814501100000000  7.4320553399999998 30.5541678700000006
  3.8993635599999998 16.6033231199999989 32.0516695700000014
  7.4104189900000002 16.9118988500000000  3.2839712200000002
 33.7043166999999997 28.4507647000000006  2.0022902400000002
 17.4921267000000000 25.1734508000000012 10.1875442700000001
  2.0564839600000000 18.3258420099999988  2.4267091800000000
 10.7011876699999995 24.8612494999999996 13.0202663800000007
 11.6170828299999993 18.3111373499999992  0.2855033100000000
  3.4541359500000000 23.6628949000000013 32.2746357199999991
  9.8025727899999993  6.8408811199999997 34.6890130199999973
 23.2418974200000008 26.5699402800000009 30.9862228299999991
 20.4470668499999988 23.8524736699999984 33.5249965499999973
 24.6170795799999986  4.2565797300000003  0.3355821600000000
  5.1294349300000004  5.4128252600000000  8.3542237200000002
 24.4380848999999998  5.8928614899999996 26.3230717399999996
 11.8666523300000009 12.8257626699999996 32.5932406499999985
  9.5955371599999992 27.1930459199999994  3.5228140699999999
 22.9360216900000005 30.7165319900000000  2.7532257599999999
  3.4653788500000000  2.6223238499999999  8.3969859800000002
  8.1433569499999994 15.4002836300000006  7.5668943799999999
 21.7938475899999986 14.1963689399999993  3.3727320900000000
 20.5082836899999990  2.7239597400000002  1.5912974600000001
  4.9363878200000002 15.8700226499999992 27.4706911100000006
 14.9055600199999994 22.7471987999999996  7.1701685299999998
  4.0225666000000002 22.2768268800000016 11.6293968099999994
 15.2722330300000007 25.4204953099999997 32.2646605699999967
 17.1502384899999996 19.0583059299999995 27.9477717900000009
 18.2004032100000011 29.1767326199999992 23.3450712299999985
 10.6121667199999994 33.6860204800000034  0.9462597400000000
 13.7874700200000007 26.0086930299999999 13.1038196399999993
 15.8966492699999993 19.9843245699999983 16.5429664800000005
 32.6375615099999976 19.4963323700000011  4.8580952300000000
 30.0064758699999992  3.8400259399999999 34.3159719699999997
 18.5408881600000015 11.7073876400000003 31.0640968599999994
 34.2759990099999996 11.7153331800000000 24.6048094299999995
  8.0320628000000003 34.8795212599999971  5.1138086899999999
 22.7826476500000012  7.9591025599999998 33.6367071700000011
 12.1373944300000005 13.1881802100000005 33.7447138400000028
  7.4054377000000002  3.1914659500000000 18.9682014400000014
 18.5615989299999988  9.7932998799999993 25.9910638499999997
 31.8101581899999992  8.3287657900000003 16.5666425599999982
 10.5615583999999991 23.1120613900000009 14.4158327199999992
 16.9004930500000015 21.5866826500000002 32.3752292599999976
 20.4781436600000006 21.1604876200000014  9.3154176300000007
  9.2241434099999999 15.1782483700000004 20.8203962300000001
 33.3994533799999971 14.6129006100000005  4.0206288800000003
 24.7095825900000001 18.9546197099999993  0.2934086100000000
 31.3185328100000007  5.5809963099999997 34.8049063099999998
 11.0604218900000006  7.5106450000000002 21.4105077799999997
 11.4042857200000007 11.8301788800000001 29.8163900999999996
 29.0684707899999992 23.7884906600000008  8.1624900399999998
 21.9701828900000002  2.8638097400000002  7.0502237200000000
 18.1100902800000014 16.2873594900000001  6.6509282000000001
 27.1502036199999992 18.4723065300000009 14.0558845699999999
 22.2519038599999988 12.7481048500000007 22.3981699899999995
 21.0430904000000005 31.2203814199999989  0.9505842300000000
 16.4690830099999985 15.8781094599999992 23.3857675799999996
 29.5957906800000003 31.4540344000000012  7.9561907300000003
 19.6976375499999996 28.1943564000000002 32.5479624399999992
 18.6047833199999992  0.5931756700000000 29.5034377700000014
 19.2785506399999989 19.6005496500000014  6.4379629600000001
 17.8434562600000000 14.9694063499999999 10.8125876600000002
  7.1608673300000003 22.6972191300000006  7.1619644700000000
  6.1368886099999997 32.6869196500000001  9.0584857200000002
 30.9694938200000003 19.2827163400000003 19.6136055099999993
 15.8677562099999996 24.3786953699999991 22.7330658300000010
 14.6373570700000002 30.0603292999999994 33.9545045200000004
 33.3574779100000001  9.1312577200000007 29.0484981399999995
  3.1082737300000001 20.7565756099999987 10.7663148799999995
 34.4542409700000007 32.4279211799999985 31.0712311300000010
 14.1816501800000001  0.9945828900000000 20.9546959299999997
 15.5744756899999999 30.2129228199999993  8.5937651200000005
 25.4104003399999989  2.5984449299999999 27.0640183000000007
  4.9555574699999996 23.0543310300000002 24.1416646499999992
 28.9577550700000010 17.9895267899999993 19.9767689699999984
 29.5561337900000005 29.9406666900000005 17.7850036299999985
 12.5560699800000002 14.8681723500000000 24.3726676500000004
 26.4251376600000007 12.2886940899999999  1.0815216299999999
 12.1340800099999999 27.4826665199999987  6.1761808699999996
 28.0718097799999988  2.9069783700000000 32.5854899699999976
 19.3298470800000004  6.7398085200000004 15.9617517200000005
 29.1612271099999987  7.7441146400000003 25.3347553199999993
 26.2325814800000003 30.9969977900000018 26.5418947199999984
 14.6245856799999991 25.4115867599999987 22.5386641899999987
  2.3290941599999999 15.0855790299999999  3.3266988899999999
 16.8283243099999993 33.6466614400000026  4.4388334599999997
 18.4740240000000000  7.9213344599999997 28.8682671299999996
 18.9655842300000010  9.5742340200000005 19.1511310899999998
 13.0601722799999997 17.3154449799999988 30.6837782499999996
 12.2610082299999998 25.7653634199999999 18.4630511099999985
 33.4999865899999989 24.2746827399999994 24.5928482499999994
 17.0005766700000009 23.6920269899999987 31.8976185200000018
  8.2745052099999992 14.6090214899999999  8.8242337200000005
 13.8961241700000002 32.1588723099999996 24.1669401099999988
 33.7623563499999975 23.9231681000000016 31.6862239700000003
 25.3662578900000000 30.6962839800000005 12.4448071099999993
 34.8730680700000022  1.6551225899999999 27.6454029599999984
 11.2875383500000002  9.6569974999999992 10.1569404700000003
 12.6985350300000004 29.2783057000000007 15.4839576799999996
 13.8767775400000009 22.0000348999999993 14.5865159400000000
 15.5733812399999998 11.8184506200000001  7.6995364799999999
 11.1095389099999995 28.0203826099999986 13.5705837299999992
 20.8007468300000014 18.1519498000000006 19.8203147000000008
 25.0291891699999987  0.5823391400000000 22.3740030099999991
 34.8685350399999976 30.4683918700000014 32.2621887299999983
 10.6059921300000006 34.9097728500000031 23.5522832199999996
 28.2241218799999984  7.8164118399999998 15.4338370099999995
 11.4985923299999993 21.8413514000000006  7.5929415999999996
  4.5695210900000003  9.9408782599999999 21.3409536399999986
 32.4078017699999990  7.9243382699999998  9.3533577300000008
 16.8832920699999995 12.4897981900000001 21.0381217700000001
 17.7125127099999986 19.2011404100000007 13.5669160600000005
 29.1582276900000004 27.3327093099999985  5.8453228499999996
 32.3411257799999987  7.3009991699999999 32.8930945199999982
  9.2396295300000002 30.4535106099999986 27.1527540599999995
 26.3374092299999987  7.8369225699999996 10.1576192699999996
 24.1071509000000006  8.8851488199999995 22.6962012199999990
 25.0538343300000008 29.7935191800000005 29.6768141900000018
 28.2161063399999996 13.0992003199999996  8.2597705900000005
 11.9643452900000007  9.7512707400000007 19.6073927700000006
 16.4502550200000002 14.4360473400000000  6.6476436300000001
  6.9465167299999999 25.1067493000000006  9.1355157899999995
 30.6138752099999998 27.4006562400000000 27.8294454900000012
 24.4903907099999998  9.9967148899999998 14.7871953900000008
 28.3929195800000009  9.7994308700000001 24.0345676600000004
 13.9787198099999994 20.3438234300000005  3.6403224199999999
  2.8989383200000001  2.4562983599999999 18.0066127999999992
 27.1414011299999984 10.5287266200000005 31.3083008999999990
  8.6132802599999998  3.4013268600000002 11.1005755300000004
 17.3729095200000003 16.4902634299999988 21.8573846799999991
 32.0643442399999969 10.4337028899999993  9.2445197199999996
  7.6429882800000000  5.7040962100000003  3.7450258100000000
 12.6488311800000002 33.9056992900000012 18.0878858399999984
 28.0972330300000017 10.1955127200000000 30.9823321500000013
 25.0564603300000002  3.9288024699999999 21.3831788899999999
  7.0875874000000003 16.0814068900000002 10.2055452300000002
 24.5986012199999990  8.6907121800000002  9.7995518599999993
 26.0681714500000012 32.7575909299999992  6.8307425799999999
  4.2906014099999998 12.1379075000000007 21.8112738600000000
 27.0796899800000013 23.3494321900000017 13.9068192100000001
  1.9103821700000001 12.7930952199999997  8.5514449999999993
 14.1361093699999998  5.5901089700000002 12.9615133900000004
  4.1556208899999998 18.5203028699999983 15.7304080000000006
 25.9672118800000007 15.9299851100000005 20.2596993300000001
 24.7666055599999986 32.3397111000000024 18.5244893600000005
 16.0927155800000001 25.2708010200000004  1.3527271700000001
 20.2854958900000000  3.3293444900000000 26.2928629600000008
 29.1477733199999989 26.6262192700000000 31.8672805799999992
 23.3847870200000010 13.1154918800000004  2.0720298100000001
 34.6050317600000028 11.7688410700000006 13.9118481000000003
 16.4309439300000015  4.8746358200000000 28.0042773700000005
 22.8898113800000012 24.0598522000000017 18.9358961500000014
  0.6066445800000000 10.8755336099999997 15.0933842600000006
 29.5092090099999993 11.2757537499999998 21.5931923200000000
  1.7833322100000000 12.4644680000000001 15.3136873100000006
 22.1426309400000001 31.1981678299999992 12.6067870099999997
 27.2691973400000016 23.3997366900000010 19.3745810700000014
 23.5840020000000017  1.3216858800000000 23.5746339099999993
 18.8721587399999997 14.3718826199999992 13.2311704399999996
 21.2816197500000008 15.1831789700000002 33.6889288400000027
 14.8269837700000000 32.1162974499999976  8.6112338299999998
  4.0070166699999996  5.9291564000000001  6.3316186700000001
 15.5150033999999994 10.6621465400000002 33.6969637700000035
  9.8701635799999998 22.8392400299999991 14.1071503000000007
  8.8750919300000000 28.6701434500000012 14.1009953100000001
 10.4280996600000009 20.0709141200000012  1.8535519100000000
  2.6468684800000002  0.9186094200000000  4.0684637900000000
 23.6708994600000011 26.8072231899999984 29.0002169099999989
 31.6455775899999985  7.2224816000000001  8.2483156999999991
 29.4420008700000011  1.7085572499999999 15.7217059300000006
 19.7115450199999991 16.9371702800000001  8.0209135299999996
 22.4937795099999995 17.9522093200000015 22.7820238599999989
 32.4749765600000018 16.9310884699999988 10.8038351899999991
  0.0579568700000000 29.0811488699999998 26.8690244599999986
 17.6940311900000005 23.5821318099999999  4.8893042700000002
 29.5368265100000009 20.4430792100000005 26.8322996799999984
 30.4607671300000007  9.1131010799999999  3.8898691099999998
 32.0300715400000016 29.4124166900000006 29.4872264599999987
 26.8150879000000018 21.1822717699999998 25.4416197299999993
  2.3027366200000001 27.0944130500000000 25.8001709599999991
  8.4733919899999997 32.2992295700000014  3.1514434599999999
 11.3101946899999994  5.4421848700000002 11.8011705399999993
 32.2733040700000018 22.4214263600000017 26.9127502300000003
 17.5930786700000006  6.8731346100000001 16.7734403199999988
 21.2114885199999996 26.4876321200000007 12.6329981700000005
 12.8002615399999993 23.9956286399999996 24.5305612099999983
 20.1422157099999986 10.2195039300000001 14.2026287799999995
  3.5818705400000002  0.4982024000000000  8.2877219600000007
 26.7429818499999996 34.2960320500000009 33.4107084700000030
 28.7772239100000000 28.8022727299999985 29.7977018200000003
 29.9744759700000003 26.0175654200000004 22.2219810500000001
 34.8354774599999999 34.8697031900000027 15.1015435300000007
 26.6421467999999990 19.5611973699999986 10.0442146999999995
  8.1163830200000007 17.0493526600000003  3.4702013400000000
 13.6739256999999998  7.6693100000000003 28.0931795999999991
 12.0695118899999994 27.2863270399999998 31.2984822800000018
 18.5917017199999997 25.7308581099999998 33.5323369299999996
  7.9867600500000000  8.4762394899999993 10.1571254100000008
 15.8067384499999992 13.8531778200000009 10.3596408300000000
 24.4834202699999999 32.8445369499999984 33.1325702099999972
  9.1074877399999998 14.5464312899999992  6.8706324600000004
  9.7196973300000007 13.9529473199999998  7.1856686600000002
 19.5331286199999994 28.2927852299999998  6.8413644600000003
  7.8124712599999997 19.2044785000000005 34.6701658300000020
 21.4771540899999991 11.5288111799999999  4.7295147799999997
  3.9548425400000000  4.0386002300000001 11.7539818999999994
  9.1738529100000008  9.9457863000000000 33.8303769199999991
 12.1448745099999993 33.9059279800000013 21.9315723100000000
 18.9357459000000006 33.0813491500000012 23.2351224000000016
 17.7020981999999982 19.1643919300000007 25.9350941500000012
  1.1273357700000000 12.1322413600000001 31.5805996799999988
  0.1388980400000000 24.4593621900000002 13.5003345699999997
 30.1230936999999983  3.8357939999999999 33.1896933499999989
 24.1761094300000003 12.8711195099999998 24.9056725999999991
 24.6393800899999995 29.0612079100000003  6.7213136899999997
 20.1192220100000014  8.7643859499999994 23.0347115699999989
  9.3973574899999992 21.3872578299999994  5.6422776099999998
 14.7597575400000007 22.2450465100000017  2.4966780800000001
 31.6684622000000005  6.8442334499999999 21.0316714299999994
 14.3017631299999994 24.7328480999999982 24.9779502899999990
 14.4105760400000005 33.5515844999999970 16.4806939399999983
  1.0229919599999999  8.4259099699999993  4.2688918600000001
 32.2654506200000029 30.4286522400000017 29.3581143299999994
 26.8275409300000014 20.4804778300000017 25.3909070399999983
 24.9745751300000016 27.6841516200000015 32.5362771899999998
 32.2108122799999990 22.1220456299999988  0.2209142700000000
  2.9060794300000001 17.4769971599999998 15.8913482199999994
  0.8895238900000000  5.2280787799999997 18.3200924200000017
 10.7932757099999996 32.5849378999999999 10.0512558700000003
 21.4573864500000013 29.2939967900000013 34.2040746099999993
 27.8819644599999990 32.1766081199999974  7.2526053199999998
 24.5375909700000001 33.2914730999999975 19.7883385599999997
 12.6061082700000000 15.8616771700000001 27.2081839199999997
 12.9470826399999996  6.6179636799999999 33.1156148399999992
  4.1386217500000004 12.8156799100000001  3.1321932800000001
  2.7724331400000000 11.2838188000000006 17.1425816900000001
 30.3704118899999997 30.5126240399999986  5.6722953800000004
 29.2685338100000010 26.2477161700000003  5.3656600100000000
 20.6478519600000006  3.4478543300000002 23.0877954299999999
 26.5777434399999990 22.1339447299999996 25.2090279899999992
 13.1333473900000008 22.1696589000000017 30.4571532900000008
 18.3753493600000013 29.4966268999999990  9.8083520499999999
 33.9728543100000024 26.7623675200000015 10.1109148700000002
  9.1462237399999999  0.5823320200000000 22.2542986899999988
 17.9980653900000007 23.4849889000000012 17.2084209600000015
 16.9310959099999998 10.9290179599999995  4.0048782200000002
  4.9882773800000004 12.9778845700000005 34.3059935899999999
 25.8343171299999987 22.3679406199999988  2.9779728099999998
  0.7890905700000000 32.2451702600000019  4.5764965799999997
 22.1779723100000012 30.1805801699999989 25.0109794299999990
  9.5312692200000004 32.0418188499999985 16.8494862099999985
  4.3147602200000001 33.1749535499999979 21.4443257299999992
 19.7825744999999991 20.7297051699999990 14.1547944900000005
  4.6309627500000001 27.5908571400000007  4.5359921800000000
  6.4206125399999996  6.2349725100000004  1.1830168999999999
  2.9649844999999999 27.4944339100000015 28.9507234300000000
  4.8087682699999998  5.9683370800000004 34.8412324700000013
 26.5940790699999994 16.6868915300000005  1.5859843300000001
 20.6386102600000001 23.1225994600000000 16.5291908899999989
 11.1113319300000004 23.1557391800000012 13.5084511099999993
 26.5378055800000006 15.8984197199999997 14.7402978900000008
 10.1865536199999998 20.4066268599999994  9.1776572999999999
  3.8862448600000001  6.1172830700000000 18.1765426599999991
 13.1524760700000005 28.6653250499999999  3.1181481099999999
 11.7152444700000000 23.1138469499999992  9.4257325900000009
  8.2876164899999996 24.9704266100000005 27.9600844500000001
 15.1393111299999994 31.4020952300000005 10.0145074300000001
 33.8263863000000029 15.0745726300000005 28.3421655000000001
 31.7755051399999999 20.9149403000000014 12.4016829000000008
 10.0845157200000006 20.4557325399999996 29.4967445599999998
 11.7858016400000007 18.9680955000000004 16.7810999299999999
  9.9464973099999998 10.7802644799999996 23.9051456100000017
  8.7822545200000004  8.3517529199999991 17.9113696100000013
  1.3889738500000000 34.4835048899999990 34.2666665100000003
 29.8640536999999995 25.1505837999999997 10.8619030999999993
 31.0053426200000004 26.7934449999999984  7.4301596600000002
 33.6933707999999967 19.4830331900000004 26.3389066400000011
 33.0038651400000020 15.9614397300000004 23.9175205800000015
  6.7683697799999996  5.9908580300000001 28.3509421099999983
  4.2840954499999997  7.7922589699999998 29.4964988999999989
  7.6569614000000001 30.5502716300000010  8.4153493299999997
  1.7761504299999999 31.7603314999999995 10.8916022899999998
  5.1597474900000000 24.8760454600000003 16.6959884699999996
 14.4782557900000004 16.0450147299999983 28.5625001999999988
 24.9408853899999983 21.4608144799999998 16.9090271799999989
 25.0198476899999989 18.5801281299999985  6.2135330399999997
 25.8497367999999987  1.5264190900000001 34.5256515499999992
  7.6255958000000001 28.3886173900000003  7.4925444399999996
 32.1944475299999979 27.0795985600000009 21.8129985099999999
 21.0659398799999984 30.2515554500000015 27.8924466700000018
 33.3512324300000031  9.1634453699999998 10.0262768300000005
 21.6346213899999995 33.0817090800000031 29.2844362499999988
 13.5200655800000007 11.7421293500000008 19.9680630599999986
 23.2358211300000015 29.4457218000000012 29.2462565099999985
  1.8331542400000000  9.8232895399999993  5.0273230699999996
  4.2188687099999997 31.5264202000000004 34.5443174400000004
  6.3432205200000000  0.5073108300000000 21.3731090799999990
 12.8443087600000005 29.2972579499999988 19.0144081800000002
 25.1582896100000006  0.3734833700000000 12.1350034900000008
  8.0036872399999996 12.9714927499999995 31.8786273000000016
  4.0891050000000000 20.5877086600000005  7.6193973599999998
 29.2113465999999988 10.1023034700000007  4.4143901100000003
 27.6545576100000012 25.1497708799999984 32.1991754900000018
  1.5424474500000001 23.9143294699999984 23.1353569300000004
 20.9440032500000015 10.8626846599999993  9.1410425199999992
 18.5016866100000001 17.8468785799999985  2.4882898000000000
 30.6866334099999989 25.2476478399999991 32.2172733700000009
 25.7135843500000014 23.2121126900000014 15.9779879000000005
 22.0426962400000015 31.5956572499999986  8.2113569900000005
  3.2768471600000000 18.9701412800000000 16.1644532000000005
  5.9650130399999997 13.9741042600000007 12.7702209399999997
  9.1033602800000004 15.1762725300000003 22.6124462199999989
 17.3836499300000007 22.0043746999999996 17.5256164699999992
 28.0360275799999989 31.5154987800000015 25.9880181700000001
 15.6213595999999999 13.1908370599999998  8.3985332300000000
 34.1479558300000008 29.6935690399999999 29.8148985999999994
  4.0006883100000001  4.5684459799999999 26.8715525799999995