Na Cl 
 1.0000000000000000
    35.0000000000000000    0.0000000000000000    0.0000000000000000
     0.0000000000000000   35.0000000000000000    0.0000000000000000
     0.0000000000000000    0.0000000000000000   35.0000000000000000
 2500 2500
Cartesian
  5.1373840099999999 34.0129791000000026  1.1397884599999999
 11.4246950399999996  4.8496127099999997 27.4408247299999992
  2.9412537900000002 13.6525213000000001 32.9255120400000010
 29.0808171400000006 21.2935972599999985  6.4891358800000001
  2.9066532899999999 27.1218233200000007 31.4845664499999991
 31.1083309399999983  7.7181546399999998  9.0251173100000006
 30.1465471399999991 13.0177298199999996  3.9850885400000000
 22.3831191899999986 13.0843094700000009  2.9892692400000000
 15.6480823999999998  7.3208896899999996 17.1930138399999990
  2.9835380900000001 24.3247296800000008 25.7318061500000006
 14.4658855800000001 18.1388849599999986 10.2395899200000002
  1.7877057199999999 15.9700411399999993 28.4814394499999999
 27.5528995799999983 31.5831981500000012  8.8112516000000003
  5.7055582200000003 28.3170077900000017 28.9499969899999989
 27.5994756999999993  9.3880779699999994  5.4265017699999998
 28.2152758500000012 34.1411838000000003 20.8761287799999984
 25.0964233300000004 10.5869905499999994 30.5501576600000000
  6.4998063200000002  7.2448134499999997 33.5796976600000008
 33.9785633700000034 17.7145546699999983 18.5203957199999998
 17.2909469000000016  3.9444786800000000  4.8532041899999996
 17.8027541999999990 30.8899093600000008 11.7066689900000007
 18.9857394500000005 33.3229355400000031 23.5776428100000004
 34.4427132900000004 13.6822369800000008  7.3568529800000002
 26.6280510399999990 27.6537519399999994 11.6089389700000005
 21.4373306499999998  7.2162250999999999  8.0953314499999998
 13.2357120800000008 27.6129817799999984 26.3847180799999990
 32.9568292200000030 30.4286463699999992 29.2595020800000007
 14.4514103299999999 19.8534181700000012 21.3992448000000017
 32.1073837300000022 33.7984038900000030 34.7741128899999978
 18.5153797400000002  2.9873320900000002 18.0904254100000017
  0.7799030600000000 17.8307091100000008 10.7279871999999994
 20.2809312499999983 31.6114772200000012 29.0976564000000018
 24.3110363400000011  5.5877916399999998  9.0140563599999997
 19.2451937099999988 18.9707186199999995 25.8678988700000012
 26.7762644600000002 33.6767745499999975 20.5497849099999996
  0.2349933900000000 29.5338495499999993  5.4094135899999998
 21.0142119500000000  0.8601871700000000  2.1657197500000001
 34.2517826099999994 24.7102435100000015 30.0627421199999993
  4.5068759700000003  7.0644306700000001 11.8862378999999994
 27.0003101500000007 19.2127610699999991 33.8753305400000002
 32.6804533199999980  5.3790177500000000  0.1512456100000000
 21.9850130099999994  7.1136742699999997 34.5235348599999980
  7.0504038800000002 21.1380342799999994 16.9422141999999987
 22.7940322299999991 24.2997434900000009 25.7887889299999991
 27.1754830399999996 23.3434710800000005 18.7184140300000017
 20.3846241200000016 24.3776009500000015  4.3391414800000003
 22.9507736000000016 33.6518404199999992 21.4819514299999987
 22.1577499600000003  5.3035901299999999 27.4392400499999987
 11.3074539600000001 29.3787581099999997 23.7876299499999995
 28.6966204199999986  4.0994684699999997 19.7665305499999988
 31.0788830099999984  2.7868195000000000  8.0753099600000002
 26.7345481499999984 32.5507800700000018 30.9605784300000018
  9.4416723400000002 31.1869754700000001 34.4967930400000000
 12.6006832000000006 29.6825969699999987 20.4072468799999989
 19.5982331800000011  2.5050238399999998 31.9356260899999995
 17.0676947699999992 31.7460732499999985 16.2531453100000007
 26.6132992100000010 24.7198131299999986 15.8993262299999998
 29.9758909200000012 14.7987319199999998 12.2873439300000005
 13.3894726800000008 21.8673151300000015 23.9653079600000005
  4.9309273999999998 29.0968036300000001  9.9785671800000006
 24.7786761200000001 25.2094939800000013 20.9653516400000015
 19.6650095299999990  4.8151802999999997  8.7353677899999997
 25.3264500099999985 26.6452942899999989  2.4611924699999999
 30.2618319800000002 25.6101636799999994  0.0210496400000000
  3.7813176700000000 27.6061545300000013 16.6392269599999985
  5.4874359400000001  2.3358427200000000 23.5085702800000007
 28.5406517400000013  7.7337834399999998 26.6983008200000000
 18.3418141500000011 25.8703530099999988 33.0230305199999989
 23.0739802999999988  4.3869768400000000 21.9197603100000009
 30.4114762899999995 20.6819754799999984 16.9619240200000014
  4.0569680899999998  5.4626520400000000  5.7927568300000001
 23.8640928999999993 18.8093058199999987  8.0029177399999991
  0.0384958100000000 16.9990985999999999 33.8502309300000022
 30.8312064799999987  5.0872461199999996 31.3455312900000003
  4.3444551899999997  7.2584123800000002 17.1368766699999995
  4.4861576200000002  8.8511442700000007 11.1817688799999999
 16.9895322399999991 13.0684314100000005 16.1267085299999984
  1.5902002300000000 21.4953487199999991  2.3259545500000001
 32.3181626200000025  6.3592127500000002 24.2887016200000012
 15.2081992499999998 34.2047188900000023  3.7104115700000002
 25.8872161799999994  1.4423145300000000 20.9803682800000004
 27.0496480099999985  8.4341543100000003  2.8314333899999999
 22.9009654199999986  1.5258533700000001 25.0175129299999988
 14.3398474900000004 34.8167624800000013  0.3270226200000000
  1.2692240400000001 16.8485163600000014 23.0144287699999985
 18.5043873099999985 28.2375506399999985 23.5135615999999992
  7.4298211600000004 28.0042655899999993 22.6917651099999986
 20.4961232399999993  8.3432180099999993 14.4650562600000008
  4.2005908999999999  4.3311742200000003 29.0451957000000007
 17.6040933899999992 16.9976426300000014  9.3796004300000000
  2.9443971200000001 31.4823921300000009 29.5645475600000012
 31.3509109399999986 24.7601121999999982 28.2058050000000016
 14.9645726200000002 34.5719789899999981 16.2509596499999986
 24.8788654800000018 29.0920502600000006  0.0886724500000000
 20.3179351299999986 23.5356713500000012 29.0284554300000011
 16.2504621500000006 16.5173682200000016 22.4076428000000014
  5.2525723400000004  9.9832414099999998 33.3384011300000012
  3.5077621600000000 14.9586140000000007  4.4254840299999998
  4.1100571099999996 22.7298715499999986 30.9512031800000003
 26.8718930299999990 30.9061093599999985  3.9800292200000000
  7.3511433300000002  0.6660026600000000 28.5066580300000005
 31.4015098500000001  0.1760177700000000 18.3306004700000003
 12.4020678600000007 16.5545751900000013 17.7451904899999988
  8.4166031900000000 22.8498627499999998 17.6432641399999994
 10.3404373599999992 16.7307218199999994  3.2416995200000001
 23.2438507399999992 24.3993287999999993 19.5192137899999985
  4.4261581799999998 15.4406049400000001 20.2472779400000000
 26.0003578200000014 13.0138838799999998  9.3464004500000009
  4.9524438499999999  5.7238216900000003 20.2712016000000013
  8.0852439300000007 18.6946792200000012  6.4736829399999998
 23.1890981300000014 14.1722485799999998 17.9818702200000011
 31.2927098500000014 26.5745022400000011  2.6591667399999999
 32.6153694699999974 31.5146612499999996 11.9116669500000008
 34.3863610699999995 11.5704435199999995  4.4442583500000001
  4.6500910500000003 34.0802230700000024 11.3090675399999991
 21.4982232899999985 15.6388363600000009 26.9227713199999990
 11.0176016899999993 22.8315769499999988 25.3137959300000013
 23.9682489600000004 19.3603190500000011 28.8822688300000010
  9.2922204700000002  4.3493716400000002 19.8891798900000012
 27.4464032799999984 26.6998661700000000  9.6507413900000003
 10.0105303699999997  1.9839882900000001 24.8912008699999987
 26.4130806500000013 19.6465411600000017  9.4172274999999992
  5.3425820999999996 17.7773742299999995 24.3286403799999995
 21.4587900100000013 17.8836911699999987 26.1974505700000009
  0.5517521700000000 33.2987425399999992  1.9659064600000000
  0.9898780600000000 11.8805436699999998  1.2973928600000000
  0.2818325800000000 11.7601192999999995  7.3250084299999996
 16.4166238299999989  9.1966413500000002  7.9511189800000004
  4.4566584999999996  3.0594172199999998  4.6252220199999998
  1.1064377500000000 10.8992286499999995 28.3359535099999995
 32.3706043999999977 12.7481311900000005 22.8408294400000003
  5.8203877799999999 33.2574047700000008  7.2020458200000004
 14.7840310400000003 10.2096881800000006 24.2292606799999994
 31.1841767599999997 22.4587485200000003 24.1863851499999996
 10.5751403800000006  6.3843605600000002 26.9479385600000008
 14.0033547499999997 14.3832537899999995 29.3463728000000010
  4.4877140500000001  0.0099617500000000 27.4271696600000006
 18.4404103100000007  2.9761216899999998  4.6771987700000004
 34.6797873100000018  8.1853609400000007 21.3612916400000010
 24.2285488899999990 19.2211408900000009 34.7149933399999995
  4.8931173200000000 23.6227381299999983 22.3597779999999986
  5.7888808200000001 28.7200170099999994 12.3259611299999996
 32.4287492200000003  9.9881592099999992 10.9919042400000002
 10.9345633200000005 27.2057835300000015  7.6037143800000004
 10.6276432900000000 13.8007638799999999  4.4385827500000001
 14.2602676600000002 27.3185092400000009 12.1847707100000004
  4.4413059900000000 25.0297751200000000 10.4304161099999995
 24.0035793200000001 18.1575594900000006  9.1023937900000007
 33.9323692099999974 11.3293324999999996 12.0912478599999993
  7.6028129699999996 30.4775142000000017 10.5812320999999994
  3.7679840499999999 13.5078928800000000 17.1556715100000012
  5.3710605200000003  6.4141303100000000  2.2881557600000000
 27.0339257099999983 24.1894749800000000 27.5059961699999995
 13.2776720800000003 32.8346718199999970  7.3292156500000001
 17.1273613699999991 19.5625586200000008 32.9228051600000029
 18.5863282900000009  5.4195657400000004 16.6413492000000005
  6.1560355800000002  4.4899273199999996  2.2084209200000000
 16.9303915399999987 34.0906170299999971 11.0003992200000003
 13.7097654999999996 15.0288331999999993 29.5996668199999995
 26.6003016700000003 16.2701160999999992 31.8412962899999989
  6.6667299299999998 12.7299832800000008 32.8290230899999997
 17.3910911599999984  7.0690902299999996 20.1994322799999999
 26.8582518199999996 11.6383742899999998 26.1566494499999997
 14.8073516499999993 17.1591521699999987 28.8705880300000004
 22.9730303900000017 22.7218073099999991  0.4155099600000000
 18.4759425999999998  5.1672671599999997 11.2591520099999993
 22.5679059299999984  3.7950303999999999 13.0758633999999994
  1.0361097500000001 18.8966103399999987  5.3299540099999998
 15.5369620400000006 29.7209674600000007  0.3001521200000000
  4.6566079599999997  3.6099478000000000 17.3926196299999987
 32.7581298899999993 15.8890997600000006 33.0996651299999982
 16.0718958600000015 25.3537140299999990 29.8717793799999995
 14.9960761199999997  4.0512950900000000 15.1166563099999998
  0.6426566100000000 21.1296003500000005 15.1931272899999996
 25.8903859999999995 19.7175840399999984 13.4349270300000008
 15.8186279299999999  3.6796770099999998 34.3315836399999981
  0.9261786800000000 26.2851177999999983  3.9749431099999999
 26.8688381800000009 14.5633660900000006 11.4938077199999995
 11.4263464199999998 32.6043051500000018 20.5566057800000017
  9.8733806499999996  6.9086120900000001 18.0433829999999986
 15.1380883700000002 10.8513017699999992 27.8288895799999985
 15.1471537000000005 23.2121627599999982 16.8194791300000013
 24.9856773899999993  4.2798996599999999  7.2735413900000001
 26.4102137100000007  6.4618552700000000 34.4015885900000029
 22.4993707200000017  6.9236598100000002 25.9503924999999995
 13.2467319900000007  2.8245972799999999 13.0064602199999992
 24.5769738400000008 30.1993746899999991 25.8904038700000001
 20.0178035600000008 19.2244801999999986 20.8387873299999988
 27.4987375999999983 31.2828107700000011  0.2005662300000000
 10.9165957900000006  5.2254821800000002  9.6789660800000004
 29.3828543800000013 22.6335002299999992 21.2383789500000013
 23.4349820199999996 16.7427656200000001 30.6617009600000010
 26.2080284299999988  3.3337561999999998 30.4405114300000008
 18.6756647300000012  1.8971207900000000 34.9091339000000005
 12.8134089099999997 34.9634991100000008 16.5296151500000015
 18.2418195700000005 25.2614495999999988 19.1834231700000011
 30.7932490600000008 32.1369173900000007  5.1705736099999999
 31.8307173900000002  3.8671948299999999  0.9435689500000000
  3.5633431000000000  4.1075529199999998 15.6418881899999995
  8.2148388600000004 26.7966449599999983 26.2119126499999986
 33.6158892400000013 12.2504389699999994 23.1277167699999993
 32.5357845200000000 23.9303962100000014 13.1691233400000005
 28.4559520900000003 19.1867524399999994 16.7483065300000007
 18.7878253000000015 31.9798997199999988 26.1746613500000009
  2.5332712000000002 16.6889768799999985  1.6344224599999999
 29.7383623899999989 12.6567193699999994 26.4824770799999989
 30.9922729799999992 17.1319129500000003 26.0610136300000015
 17.4561211299999997 15.0278575300000004 13.2015449000000000
 13.3650725799999996 31.7748401800000018  9.7388849999999998
 21.4402144600000000 20.6844212100000000 23.0673458499999988
 32.8817199799999997 28.0677251199999986  4.2561412199999999
 27.9654119700000017 34.6789626300000009 29.3248609800000004
 27.9384900899999984  2.2029414799999998 29.8375044600000017
 33.9375363899999982 28.1741302699999991  7.6074222799999998
  2.9462042099999999 26.8541441799999987 12.6013058099999995
  5.1467265900000001 16.0338168699999990 15.3601942099999995
 33.7841601100000020  5.3788994700000003 33.1633869500000031
  2.0445135900000002 27.1398633499999988 19.6832769600000006
 31.8359373800000007 21.5995028799999993  2.8449187999999999
  4.5502712599999997  1.4091430199999999 23.4666844400000016
 24.5653110000000012  9.1820476800000002  7.6753282199999999
 24.2414106999999994 25.3896078100000011  3.1385353100000000
  4.3629648999999997  3.3510337200000002  5.8237379400000000
 19.5636314300000009 15.9535077100000002 30.6041640400000006
  4.1850515399999999 23.1612797199999996  1.6282752300000001
 31.4217574199999987 25.4770405000000011  2.6197014500000000
 34.3222396500000002 18.8817835400000007  1.1359697400000000
 17.2434582399999989 10.8026543400000001 15.2114192500000005
 18.3233970799999994 31.3347095700000011 32.4637424499999980
  3.1193039699999998 31.1418582499999985 11.2115759199999996
 27.9564850999999983 24.6450768800000013 19.8071310999999994
 13.4523880299999998 29.2856787199999999 34.4023057699999981
 34.5530750699999984 13.5326906200000003 13.9313179599999994
 28.6609125700000007 33.9576252600000004 15.8076915699999994
 29.8721904199999990 21.9044122600000009 17.4568890699999990
 27.9345578699999990  6.1141054400000003 34.7700640699999965
 20.4668990999999991  7.1731185300000000 18.6031636999999996
  8.3723590100000003 14.2378748999999996  0.9634773100000000
 23.1632080199999990 34.0371920700000032 23.0870803900000006
 14.5601969100000002 28.2294951300000001 28.1246910700000008
 16.6827763000000004  2.4212677700000000 24.2473627799999996
 20.4262596899999984 24.1465812600000014  6.5912618099999998
  4.3372792499999999 26.6523402900000015 15.8832770799999992
  5.2379612800000004  9.4151748899999994  5.8444551200000001
 17.7571953799999989  0.1827506100000000 26.4895300200000001
  9.5310487599999991 28.3364634600000009  5.9413787700000000
  1.7529935900000000 27.5632450499999990 30.4596091300000005
 24.6506034000000014  7.6913815000000003 14.0489167699999999
 10.1441014299999992  6.9127384400000000 17.3949150000000010
  1.3363388300000001 24.8466823400000010 13.1901482199999993
 31.8211808400000002 18.5864003400000009  6.6305789800000001
  0.1409975300000000 24.7455654199999984 28.7180904900000016
 14.9469018899999995 17.5800880200000016 33.5393069799999992
 20.1323638400000000 19.6391226299999992 24.7340866099999985
 10.7936272199999994  3.4926336000000000  5.6929467999999996
 26.3568187599999995 19.0528285500000010  5.8893990000000001
  3.1289682800000000 18.5699345399999984  9.8898097800000002
  3.0330547100000000 16.5505095500000010 19.4140213899999985
 21.4574819000000012 30.8983633600000012 13.7929550200000008
 13.1949878300000005  8.1604017599999992 21.8724386300000013
  5.0759923000000002 17.2025739900000012 23.6609729800000004
 34.9728227499999988 33.2318805600000005 33.2165589499999996
 20.7062747099999989  5.3590899900000002 15.2254124199999996
  8.5064977000000006 28.7068126499999998  0.4001821900000000
  5.8621154999999998 34.5751453000000026 34.4670618000000033
  2.9077458699999998 10.4847943800000003 27.9391978200000004
 14.0977705400000008 26.2294359700000008 13.1304212899999992
  7.9906328000000002  3.5655307899999999  5.8759530900000003
 22.1436516099999992 13.3525909499999997 31.9961733099999996
 19.6847835800000013 22.1576464000000009  3.5630838699999998
 34.7505348899999973  7.2398510099999998 20.1759196600000017
 16.6817018600000004 19.3631729200000002  6.8472685300000000
  2.0421461999999999 22.3511890099999988  1.4336912200000000
 16.0482969900000008 13.7275639599999995 34.1674581400000008
  7.4689182299999999 20.1086547899999992  6.1609796699999997
 17.5852681100000012 15.6010517100000001 21.8760255900000011
 30.3620451200000012 29.8923735099999988 11.1215219899999997
 19.4200211600000010 17.2956322500000006 12.6912930500000005
 12.5622979299999997 14.5412436399999994 24.6817874900000014
  6.8023561399999997 17.1995923899999994  8.5492393199999999
 12.0652982800000004 26.4682117000000012  1.2341116800000000
 21.7149950199999999 18.9213783400000004  1.6056911199999999
  1.8505964500000001 22.9745072000000015 12.5425113100000001
 31.9875829600000010 15.3068583700000005 12.3686518299999992
 14.9312257200000005 34.1106105699999986 32.0317853399999990
 23.2162339200000005 15.2435080999999997 32.6406550000000024
  1.4885469000000000 28.0076657900000008  9.8389351400000002
 22.9829211200000003 13.9552208699999998 10.3970947999999996
 23.9722698799999989 16.9398436500000003 17.9522168499999992
 22.9085762499999994 24.4410108400000006 20.0691483599999998
  7.1764683900000001  4.9041858300000003 34.6511917899999986
 17.5804686399999994  4.9365029500000004 17.8050141900000014
 33.8734316299999989  0.7654195200000000 19.4058155499999998
 23.5419463200000010 29.4917943600000001 33.5877397499999972
 29.1419953400000011 34.5156120700000031 13.8920877199999993
 34.3182991700000031 22.6540685699999997 16.9304787499999989
  0.5563785999999999  6.0550516200000004 22.2525328000000009
 23.3187904900000014 23.9117255600000007 14.3715131199999995
  7.0210638300000001 18.0197949699999995  3.6940970399999999
 31.6889995599999992  2.0156057800000000 31.2863338999999989
 24.4139368800000014 20.0371524100000009 29.4205711399999998
 26.5390830599999994  2.3690463600000000 21.5621562000000004
  5.1593038000000000 17.4190416900000002 21.8337567200000002
 19.9492417499999988 21.9060674000000013 10.2748577000000001
 34.5333560600000027 32.1152622399999998 26.2124714599999997
  8.0078845399999992 13.5154112299999998  3.5165903100000002
 23.3333485899999999 23.5898165000000013 29.0458804300000004
 29.1124171999999994 27.3959066799999995 18.0036487299999983
 12.3241346200000006  1.7304810399999999 34.1948796400000035
 13.3420466100000006 29.7773548099999985  3.0022494700000002
 23.8068732899999986  2.1193343499999999 24.6523488399999984
  2.0268831299999999 10.8248359199999999  3.0172318499999999
 30.6157257799999982 23.5032346600000004  8.8648605499999995
 31.7111929400000001 25.0197385700000012 16.7462141600000010
 18.6213263900000001 33.6326134500000009 13.3342561300000000
  3.8427449400000002 10.0142594700000007 29.6589229299999992
  7.5177642699999998  1.0641498599999999  0.1667572300000000
  2.6886907000000000  3.8245550599999998 19.2968276699999990
 11.7826473299999996  0.9536006200000000 32.1656420999999995
 32.9468529299999986  2.7571374600000000 34.2093459399999986
 11.4771297099999998 11.1191007499999994 13.7263054800000006
 13.0162256299999992 13.7041940300000000 26.3891033800000017
  1.6604486300000001 12.1601274700000008 10.2624488599999992
  0.9780289700000000 22.7328254799999989 10.5978157100000008
  2.4886681400000001  2.0454801699999998  8.3851362799999993
 18.9855036199999994 29.3592708299999998 11.2648376999999993
 13.1272876099999998 25.3229243400000001  2.3894655899999999
 14.7481351699999994  1.9078701199999999  5.5730810100000001
  6.7725947000000000  6.9990758700000004 33.4681867099999977
 14.8140782699999995 25.2134431700000015 17.3393414499999992
 12.3117609199999993  3.7657317699999999 10.6539361600000007
  0.7050036900000000 18.9970933600000009 14.1480535300000003
 31.3356195799999995 12.7582289099999997 17.5533380500000007
  3.9526248399999999  1.7656340200000000 30.0110169000000013
 10.1609788900000009 10.5722528499999999 27.8537100200000012
 12.3043747799999998 19.6268757299999983 28.9004576899999996
 34.9923951199999976 12.1848244000000001  5.3436081000000000
  0.0213701400000000  9.1680119799999993 16.7772887699999984
 15.8923607400000009 17.9069855500000017 32.7061725800000005
 17.6425402399999989 33.1738767599999989  3.3467859799999999
  4.4320280099999998  9.0947678199999995 10.7627373399999993
  9.3265155899999996 20.7475757899999991 34.5063501300000013
 33.2266205800000023 14.8120440500000008 26.0243012500000006
 30.4310384999999997 34.4639914099999984 21.3036801199999992
  0.9518267800000000  2.3526928200000001 26.7081681000000017
  9.1813265299999998 30.5550606000000009 18.9034917200000017
 15.9854170900000003  6.9049827199999996 27.0445827299999983
 28.3019226500000016 20.4140604600000017 29.1141769000000004
 21.9710908700000012 18.1243297599999984 10.6102572599999991
  1.5937585400000001 11.2998450399999992  6.4956496200000000
  7.3832369699999996 15.0637939200000002 22.1843353500000013
 32.1241985799999981  1.4055064300000000 32.3465363099999976
 28.2357401299999999 28.0842857300000013  2.5903200599999998
 30.5093317999999982 20.3395907999999999  2.5025390399999998
 25.1736110099999983 12.8802066100000001  2.6324946100000002
  4.3369432100000003 21.0045974400000013 14.2692193300000003
  2.7693056700000001 28.7204749799999988 20.0229213799999997
  0.2395654400000000  1.3763517500000000 32.3438963400000006
 18.8657048799999991 10.9019656800000000  4.3371997599999998
 25.3164181900000003 33.0405299900000031  2.1874891999999999
 15.1309062200000000 30.1408650499999986 22.5188851099999994
 19.9019858800000016 32.6766841800000023 12.0310544799999999
 10.9325908399999996 29.0542616400000000 29.9753634499999997
  5.9334904000000002  9.1732026399999995 34.0168094799999992
 30.5168801599999995  7.2048017000000000 26.1022061200000017
  9.7782328300000003 17.7591817700000014 33.5679287500000001
 11.1785459700000001 32.8220957799999979  5.9637132800000003
 27.1290249800000005 12.5228889100000007 17.1939696700000013
 19.0482958199999999 34.7078728099999978 25.2183831699999992
 30.3659275899999983 25.1449228699999985 20.7186103400000015
  2.6839553000000000 29.2367973100000000 17.8523979500000003
 25.2522880399999998  5.2050473200000003 16.2302950199999998
 27.5684290400000016 12.5868214399999996  6.7078629599999999
  4.0528241500000002  5.8155571999999998 22.0699371500000012
 34.4337196299999988  2.5258150900000000 31.3741697299999984
 30.6705865499999994  0.5480674100000000  6.3688782499999999
 11.7367742899999996 34.9654818200000008 14.8528867099999999
 12.4669313000000006 21.7143980600000006  8.8881294700000009
  2.7920473399999999 25.9396488599999984  7.6783839800000004
  5.5994936600000003 30.6898940799999984 10.0497637199999996
 31.3789209800000002  5.5248713000000000  1.5118723400000000
  0.0384848900000000 16.8155702399999996 29.2890989700000013
 21.8864009999999993 29.7416525100000015 32.9538139799999996
 14.7515357999999992 24.0621621499999989 22.7592661099999987
 34.9854407500000022  0.3027344600000000 13.0580517399999998
 16.6756072499999988 21.9310650799999998 10.4107166600000003
  7.9148584399999997 25.0258150099999988 13.8728979399999997
 26.7956959700000006 10.2622025499999996 31.8382318099999999
 25.1620982099999999 29.3846140399999989 17.2081365700000006
 12.1514148100000003  3.8287321099999998 19.5005338799999990
  5.4729597500000002  4.0344883999999999 12.6465152300000003
 29.9815256999999988  4.5023783799999997  1.4734823100000001
 19.8171460699999997  6.7739160399999996 29.2068291000000002
  4.1766212899999999 21.4740994000000001 30.1885332099999992
 18.6776965399999995  1.0457221200000000  5.4516942700000000
 31.6256094400000016 21.6178674000000015 31.4974347299999984
  2.3855452599999998 18.8592628600000012  7.6309167899999997
 12.8184258000000000 14.2824536000000002 15.1977331800000002
 33.3015522000000033 14.1877532700000000 33.5691306599999990
 31.3789920000000002  6.7186273999999999  9.9706978199999998
 32.5182793000000032  9.7201925300000003 22.2758214499999987
 29.7310916300000017 30.4569637100000001 15.1890778999999991
 27.8323180599999986  2.7695800099999999 33.3311456300000017
 21.5646722799999999 12.4469769800000005  1.3420704900000000
 16.1788005900000016  2.1015544899999998  5.8262699600000003
 27.1192012300000016 22.4150246600000003 24.3193866499999984
  5.9313800199999998  8.7040188900000004 23.4455667699999992
 19.6406390399999999 15.2204233099999993 29.6545817900000017
  4.5562020600000004 31.0880515499999994 16.8824343600000013
 33.0743303799999993 10.2707629899999997  0.7135084600000000
 21.9366492899999983 34.2646542100000033 31.0433381100000005
  0.3836576800000000  8.1346759199999994  9.4982512700000008
  2.1090368000000002 26.5815451699999983 16.0297538400000015
 17.0728527800000016 13.4366524199999997  9.8172043700000007
  7.7538166000000004 13.3955935600000000 19.7409867199999987
 21.7638668700000011  0.3104934000000000  3.4626207500000001
 26.2668952599999983 12.7085697700000004 22.9321022100000000
 34.8419036700000007  2.8750468499999999 20.9124100300000002
  4.8754228599999996  6.2320153800000000 21.4824415500000008
 30.3951601300000007 26.4563665700000001 12.1529567600000004
 29.7443060300000006  7.5514791700000004  7.7104239899999998
 19.0960785000000008 32.7912667100000021 12.8196016999999998
 34.0457186499999978 26.3934191300000016  4.1952389300000004
 19.3806383400000009 20.3885524300000007 20.4006954900000004
 14.4891614600000000 24.3367044499999992 16.9917440000000006
 15.2414157499999998 32.4744299999999981  7.7450832099999998
  6.6134468499999999 27.2011635100000007 34.9550570199999981
 14.6432928600000007 24.8230582499999990  1.1399654600000000
 14.3994979999999995 22.3628859300000009 23.0237910600000006
  0.8563979000000000  8.4794616699999992 29.3122353400000009
 25.7394402599999985  2.7724789099999998 12.0529943700000004
 29.6764003999999986 21.2614772199999997 26.6475894800000006
  6.0363882499999999 23.5773661300000015 29.7925977300000007
 14.1900338300000008  1.8986175800000000 25.0656673999999988
 18.6719711299999993  9.8187902800000000 34.4081606499999992
 27.9560506199999992 17.3428395699999989  1.1046598800000000
 16.0186203999999996  4.9530901900000002 16.5867830900000008
 34.0634553699999998  9.4944240200000003  7.7845383100000003
  4.7353748400000004 32.4449255899999969  1.8643312000000001
  8.8145598599999992 26.3075290399999986 30.6406036300000011
 21.6252122799999995 14.9427179300000006 17.2602384899999990
 12.8282185099999992  3.8684946899999999 22.7902917599999988
 31.4336106400000013 14.6940611899999993  3.0863926099999999
  3.0005321199999999 29.9433408499999985 27.7297291699999988
 28.5581733900000003 22.2201014299999997  3.2447683999999999
  4.8224416500000000 25.7767960000000009  0.6103950500000001
  3.9095812099999998 13.3313566100000003 25.1104871299999992
  1.9572731200000000 30.8893441799999984  2.2075698300000002
  2.6261364399999998  2.4752277600000001 21.1530233599999988
 23.8636490200000004 11.3490149799999998 27.8948149699999988
  3.1552464499999999  5.2270958700000003  1.8003487100000000
 18.4608188800000015 30.9829550699999992  0.5257944900000000
 17.0280015899999988 29.6226791799999987 28.3690613999999997
 28.8148931499999996 31.9090963099999989 26.1817113399999997
 16.0224669300000002 34.6016394999999974 24.7550714999999997
 13.4866491100000001 10.1116578900000000 21.6340959200000000
 24.2501600800000006 32.4404729199999977 32.0283144200000010
 34.8805123200000011 21.7705138600000012  7.0263969900000003
  2.6542238000000000 19.5394772100000012 29.9934340000000006
 29.6452585500000012 22.8605108000000001 21.6050542099999987
 26.1460798899999993 12.1647743800000008 18.3630790499999996
 33.2696446699999981  2.9178878799999999  5.9415515799999996
  4.6573983500000002 16.8941139199999988 19.3727023199999984
 27.0078108499999985  5.2770213500000001  0.8977590500000000
  3.6364017099999999  7.0034918499999996  2.6876029899999998
 20.5434869499999984 34.3851492200000024 26.2029044999999989
 22.2159498699999993  3.4694776400000000  1.5106521799999999
 14.5312451800000009 31.6377434099999988 15.5534843800000004
 27.4119752900000009  8.0686423400000002 19.6718581400000012
 14.9197843900000002 16.8161700200000013  4.3694625800000004
  7.5575294000000000  4.3966397199999996  9.3237313799999999
  8.9533226700000004 13.4941527299999997 31.2249503600000011
  7.7407671499999999  4.0734520200000004  2.5080235300000000
 12.3514141899999998  5.2182886000000002 28.7765093800000002
 16.7932178100000016  3.6117523600000001 12.7219136299999995
  2.2023874600000002 20.5260425099999999 21.1964041200000004
 17.9640221199999992 11.3197156900000007 25.4616568900000004
 24.0674144100000014  6.0339415399999998 17.4555089199999998
  4.7384907399999996 14.8137841300000002 20.2699561599999996
 22.1531497600000016 32.9880230400000016 29.7031529899999995
 15.8922609500000007 16.2297554899999987 18.5004845600000003
 32.6439672400000021 22.1573549099999987 33.6639723700000033
 15.3836019700000008  7.1982899700000003 21.6595888800000012
 32.7102627800000008 16.3865111900000002 28.0936336599999983
 19.7010045500000004 14.7835454399999993  2.0481546599999998
 18.3353402800000005 22.0640587199999985  5.6349254499999999
 31.1920308000000013 14.4616577900000003 17.0824566900000008