Na Cl 
 1.0000000000000000
    35.0000000000000000    0.0000000000000000    0.0000000000000000
     0.0000000000000000   35.0000000000000000    0.0000000000000000
     0.0000000000000000    0.0000000000000000   35.0000000000000000
 2500 2500
Cartesian
 23.3113464099999987  3.7990735299999998 11.0287449399999993
  0.1162411400000000 28.6648614299999984 30.3261366099999989
 21.3779912500000009 24.8990163600000010 17.7678882800000011
  4.8983765600000000  7.0149264999999996 19.8697351399999995
 15.6385498599999995 22.1074802400000010  0.4203797800000000
 30.3230166200000006  3.9403780500000001  5.9339225600000001
 16.4365428999999992 28.9764736200000002 17.5921964799999984
 27.0462345800000001 21.0645588600000018  7.0406964800000003
 32.9857057800000035 25.7570655600000009 19.0009466899999993
  8.9111026199999994  3.9017485100000000 21.6872863699999989
  8.2220019600000001  7.1868657899999997  4.6533152400000004
 18.2692994400000011 32.1157698900000028 34.7446227000000007
 12.8737624499999992 34.3255618100000035  4.7174106199999999
 10.5202305900000006 28.5155676599999985  6.1455851399999997
  3.8494527100000000 17.7516216399999998 11.5049454999999998
 23.6189725099999990 29.0709820900000011 30.9959044100000014
  8.1655014399999999  2.5826476500000002  6.5590196000000001
 22.4424066099999990 29.5279780100000018 11.7264888099999993
  2.0973811200000001  5.6844703299999999 23.8927930199999992
 11.1722354399999997 31.7610570299999999 23.0855551800000001
 23.9259418299999993  8.3043446500000009 26.1205331200000010
  2.8001781900000000 22.5948650700000009  1.8972393400000001
  1.9016492500000000  6.0188922800000002  9.5224767499999992
 24.2667015399999997 30.4527923300000012 15.0806968700000006
 26.2722652200000013 32.9615165599999997  4.2088793300000003
  3.6349511900000002 17.6246255299999994 12.0813596099999998
 16.4110356999999993 20.2769622900000002 34.9052189000000013
 17.0141093900000016  6.1365310800000001 26.6778724599999997
 25.0024383400000012  5.9811390900000001  5.0046761799999997
  8.5925566300000007  5.0992894399999997 23.7575889700000005
 13.7977779199999997 24.2534377499999998 17.5282904100000003
  2.9769181900000001 18.0640859999999996 13.0933393799999997
 14.7548957099999996 10.5321947199999997 19.5966338399999991
 10.6249672999999998  3.8253589799999999 32.8083498199999966
 19.9354755700000013  0.5378913500000000 10.3398960700000000
  7.6331936699999998 16.0860061399999985 17.5052247899999998
  0.3129783500000000 10.2271011400000003  1.8887866900000001
 34.8378249000000011  4.3230958700000004 33.2722852300000014
 12.2977843399999998 13.8614846899999993  9.9732246199999999
  4.9861937599999999 12.9584822699999993 23.2114354700000014
  4.5959425600000001 34.0066438699999978 34.6634825699999993
 14.1514980700000006 19.2281338899999987 12.2462806099999995
 23.2382001500000008 34.4299771000000021  9.6251679499999998
  0.1977962800000000 34.3620252300000004 22.5580466599999987
 13.0902880899999996 33.4718676299999984  6.6792967499999998
 13.9404452800000005  7.0637763600000003  0.8893281900000000
  1.9388123100000001  0.6184916100000000 34.9884635900000021
 16.1074931100000001 28.6367162800000017 12.2905564799999993
 32.3826941700000006  5.9408691899999999 28.1885194400000003
  4.4463020999999996  3.9994778800000002 19.2247382500000015
 25.1758089900000002 14.8217260700000004 13.7501317600000004
 28.4644222700000000 21.5450439299999985 32.5533818199999985
  4.6882644200000003 10.6600305399999993 33.1332766199999966
 20.9801290400000013 23.0287334100000010 13.9224289300000006
 19.2630758600000007  4.5159377699999999 19.3661242999999992
 21.4511490800000004 29.4625980500000004 32.8855006300000028
 21.6090779799999986 23.7735410099999989  1.9036747800000000
  5.0620332799999996 27.5933418900000014 11.2971854999999994
 31.7966329499999993 26.0099923199999985 34.9409551500000006
 22.6331263400000005 14.9543131500000008  2.1410592799999999
  4.7833889500000000 34.4180250000000001 18.7462568900000015
 33.3394818599999994 21.6715912599999996 24.4342260700000011
 11.0375003700000001  7.2687316500000003 15.5728195899999999
  2.3787927299999998 10.3694344199999993 14.0842531999999991
  9.0435151200000004 24.3586875999999997  1.4625450000000000
 10.9937719400000002  7.3250347299999996 16.8587354299999994
 19.7662935500000003 27.0957697800000012 13.6026108600000004
 34.0806586300000021 18.6296576899999984 33.6568077000000017
 34.9670845400000019  6.7899192199999998 18.1722961000000005
 11.7804885899999991 34.6716875600000023 12.0527896699999992
 26.2359284700000011 17.2498094799999997 12.5479525400000007
 18.4383946999999999  4.0997997399999999 25.3342878999999996
 18.3767459399999993 17.9690822700000012 26.3656616200000009
 27.6749155400000006 17.3055257299999994  3.9709995800000000
 30.5898996300000015  9.4430516999999998 19.3698943099999994
 14.8136302600000000 17.6838498299999998 27.4641246700000004
  9.5433835200000008 25.6468108599999987 20.9501666600000007
  9.4510211700000006 13.3127257199999995 26.9812488500000001
 13.8494922900000006 18.4169021599999994 27.8746266100000000
 13.8493856999999991 16.6254462399999987 18.8749206399999991
 25.7911352600000008 31.6102489599999998  8.4542769900000003
 26.0333847600000006  8.0975974599999994 16.3205858299999989
  5.0860887600000000 11.8937166100000002 12.6950483999999992
  5.6785224000000003 28.9259914900000012  9.1389486699999996
 18.3102607100000014 20.5517370700000015 33.0449333899999971
  6.1954369800000002  1.7092792699999999 27.8567653899999996
 28.6558835899999984 19.4354199600000008 31.1032154600000013
 26.7422403899999992 21.8341825400000005 27.1060259899999991
 10.9787459799999993 34.7837123400000010  4.8532428000000003
 18.4516776100000008 17.3456132499999995 12.7219587900000004
  2.9614278800000000  2.7184255700000000 13.5785771999999998
 15.1470667100000007 21.7502361099999995 16.2183429200000013
  1.6895179700000000 10.7285070200000003 29.0174289899999991
  5.9290035600000000  3.7627694900000002 30.8668011699999987
  8.3272424699999998 25.9641625400000002 34.6798277799999966
  8.8655115599999998  7.6527702199999998 30.1090742499999990
 13.2108556999999998 29.8517606499999992 28.5412051600000005
 17.0351102499999989  9.0979974400000003 30.0430300599999995
 23.2061387500000009 20.5740053899999999 22.3085637900000009
 20.0315631100000004  5.4811696300000001  2.0179568699999999
  0.8010853200000000 23.8409376199999983 14.6385159700000003
 14.5378927400000002  3.3632342999999998  0.8788779100000000
  1.3010769300000000 27.1999181800000009 14.0248803100000003
 26.1633947700000000 23.1758322399999983  1.2124105999999999
  6.9849780700000004  6.5265009200000001  0.9009794200000000
 22.7611062000000004 30.9118867299999991 31.0802273500000013
 25.3810779699999998 34.7774119999999982  3.9634058799999998
  7.9626351499999997 23.0089531200000010 31.4750503500000001
 11.1713097200000000 16.2025088699999991 15.5665491500000002
  1.9916043800000001 12.8948354500000004  3.4994110400000000
 14.6013294699999996 19.5443922400000005  7.6003702200000003
 24.4222202700000004 19.2560132700000004 25.8149996199999983
 12.6986034700000001 30.4285080599999986 26.9349921399999985
  6.4129539299999996 17.5166730299999998 17.7235622200000016
 29.9101999399999983 30.7304725800000007 27.0526510299999998
 23.9058226800000000 20.1618345599999991 24.9534020299999995
 21.8278677999999999 25.9740412099999993 25.7105383699999983
  7.0183834899999997  7.9712526500000003 27.8432339199999994
 11.2324715600000005 29.1495050599999992 20.7316256500000016
 11.4322283200000001 26.4614449100000009 27.5046006799999994
 24.8235695499999984  9.7334754300000004  0.5216349600000000
 17.1187625200000006 15.0416456499999995 34.9384212100000013
 15.0452336399999993 25.2417311700000013  2.7758560100000000
 33.8120156199999968 18.5465953200000015  2.6275258099999999
 25.8263352700000013 28.2169277799999989 26.9051896200000016
 30.5218777199999991 21.1988835999999985 24.6367383300000000
 19.6610411399999983  8.1185092900000004 17.7856112599999996
 22.7684644399999989 14.5817867200000002  6.0894402799999998
  5.2227806100000000 34.2737760999999992  9.3549855700000002
  9.2424397999999997  7.6857664799999998 24.6772648900000000
  0.7909360900000000 28.2628325599999997 28.4269102800000013
 21.0810287199999991  3.8496724900000001 21.4454722699999998
  4.0525043700000003  0.4409155100000000 25.4669966599999995
  8.8127820200000002 31.4274686400000007 16.4653854799999984
 23.7337635200000001 33.3635513500000016  6.2075396899999999
 30.1195120799999998 13.6395878899999996 25.5537017099999986
 31.0646592199999994  8.7274355799999999 32.0098064000000022
  3.8161050400000001 17.2773788400000008 20.9061096900000010
  3.9855859400000000 30.7429729099999989 27.1457814199999987
 14.1482516999999994 34.6662484100000015 25.6370400600000004
 31.7322779799999992 29.3960168400000015 33.8550233300000016
  6.3771466099999996 10.7030782099999993 21.6354869200000017
 12.6286598800000007  9.8866358400000003 19.6884827099999988
 14.3288367900000004 24.7599134300000010 24.8650410099999988
  6.7443258300000002 21.8841468200000016 26.8556468099999996
  2.8559037200000001 14.1737742499999992  8.6237951400000004
  5.1248927200000001 34.0718759399999982 11.0188941299999996
  9.5536648300000007 23.4447872900000007  6.5400012800000002
 17.8014725799999987  9.3497063100000002 25.5138740800000008
 26.6816749500000014 18.9108479100000011 34.6208027899999990
 31.8325499399999998 34.6668144900000001  0.1512049800000000
 21.3021231600000007  9.7839698399999993  9.1811467300000000
 27.5331429000000014 14.5327338899999994 21.6584111399999983
 12.9160444400000003  9.9588731399999997  8.7808976500000000
 20.5468477199999988 20.8696997000000017 22.0428692400000017
 34.5033490900000004 17.7880968700000004 29.5441756700000013
  3.9604041400000001 27.5123327599999996 14.7767135799999991
 27.2251433399999989 17.9841554399999985 34.7005387299999981
  6.9544369499999998 18.2217856400000002  3.5512824799999998
 11.4045891000000008 16.9289801900000008 10.3699874899999998
 23.3798276300000012 34.7629374699999971  5.6899917000000002
 11.6904837799999992 26.9608273099999991 20.6246162599999998
 32.9255287800000005 29.3621359800000015 24.4193920700000007
  6.7224421799999998  4.0856452799999996 32.4401720999999981
 26.9725190099999992  7.1270607699999999 14.5104024799999998
 31.3344251000000007 27.6826917299999984  7.9999051899999998
 19.4065825200000006  1.4324851999999999 30.7788223800000011
 34.6677409099999991 15.7215318300000000 16.7855003499999995
 13.9043171999999995 29.8591044799999992 11.9689572900000005
 17.2651580299999985 25.5110313700000013 13.9043124500000008
 29.7793929099999986  2.2565850500000000 21.4249514699999999
  9.1594377300000005 12.6699994100000009  4.6800801600000002
 13.1071689100000004  2.1878101700000001 20.5255442899999991
 12.8228542500000007 18.7114209199999983  7.8514193900000002
  8.8057600199999992 18.4085985699999988 28.3161013200000014
 13.7149517999999997 32.1949425700000020  0.3997334600000000
 33.3201956300000006 12.5279121999999994 31.6203019500000018
  2.4148671799999999 21.6726259600000013  6.8244968200000002
  4.3181323699999998 19.8507022299999996 10.7524548099999997
 11.5079949500000005  4.8710472999999999  2.6919279500000002
 23.2330436999999996 17.7654206099999996 33.4242544800000019
 11.4449751800000001 30.6979334500000007  5.1674505599999998
 14.3416066799999999 29.3834550599999993 32.7292035199999987
 19.7235721099999992  9.0764007200000005 17.0669415899999990
 19.0872731599999987 24.8000242100000001 34.0068882400000021
  3.7706828899999998 23.8673377299999991  3.3451686199999999
 12.2490127199999996 34.1567216899999977  2.0213702200000001
 23.1693111499999986 31.6125615999999994 12.3228442299999994
 15.0429074499999995 21.1455339900000006  2.9897651700000001
 23.9832830600000015 27.0383289799999993 28.1952313799999992
 12.2537885499999994  9.4240822099999999 15.5496333599999996
 32.6878232500000010 24.2453204800000002 21.1012519900000015
 28.7422761400000013  1.4350989999999999  4.7089374099999999
  8.1109894400000009 31.3994915500000005  1.2544985399999999
 14.3569630700000008  7.4782908199999998  2.6337846599999999
 26.0187644200000001  7.3736687999999999 29.2515889499999986
 21.4555304599999985 33.1004759699999980 29.6995613300000016
 25.5273183199999991  7.6390514800000000  9.5382878200000007
 10.0034390299999991 22.7998501000000005 17.0806400799999984
  4.3178473100000003 15.0597902900000005 24.8954429700000013
 27.7100132600000002 12.1927903600000000 34.2275460899999970
  2.3671329600000002 24.4036049199999994 21.3878235299999986
 15.1501423000000006  3.4416832700000000 24.3707151499999988
 28.6094452799999992  8.9468323800000000  9.4117441399999997
 18.1836796000000014 28.1030505999999995  2.9714787000000000
 31.6425840100000002 26.9094146000000016 31.5311912499999991
  9.7314185400000000  0.9514662500000000 31.2932438099999999
  0.5487650800000000 18.0946968599999991  2.5701708499999998
  6.8614339099999997 30.1197903599999997 18.3165478999999998
 21.2205181899999999  3.2491497499999999  8.4597717100000001
 13.3832115300000005 21.6362628400000006 25.6695824500000001
 18.6722630299999999 14.7247498500000003 28.8706581900000003
 24.1522685800000012 32.1780357800000019 31.2474316999999999
  0.5845701700000000 24.8707642399999997 32.9345519999999965
  6.0154540499999998 21.7362445300000005 26.0618128300000009
 30.8882056399999989 18.0721361199999997  8.3918153400000008
 26.2404875199999985 23.8737211900000013  5.6320124500000004
 17.2332387300000001 14.0433936399999997 22.3168270000000000
 18.9113073900000010  7.3432378700000003  7.7988665599999996
  0.5503307800000000  9.4093764899999996 13.3906224999999992
  6.1923035000000004 19.0448578899999994 11.9265712100000005
  4.8823009900000001 16.8326938699999999  2.0859452300000001
 23.4815200299999987 28.9072136499999992  8.5397473799999997
 27.5342308299999985 32.8176369099999974  1.0236057800000000
 18.7423951399999993  3.4350885400000002 18.5330084500000005
 19.2730497700000001 32.1474539299999975  7.2581830299999996
 13.2822332799999998  4.4947413500000000 13.1178567699999995
  6.8187939399999999 13.4697619999999993  6.2899811000000003
 15.7123305700000007  2.1398482500000000 19.4295460700000007
  2.3808457800000000  9.8749573200000000 33.4076418399999966
 12.2364343600000005 32.7523222599999997 23.2802267600000015
  5.7711901299999999 11.3925704600000000 24.9316418199999994
  6.1040584800000000  5.9108253700000004 13.2420143499999998
 28.5351415999999993 20.1248255799999995 32.9434700199999995
 15.9005996500000002 16.3783107500000007 30.2687665700000004
  2.1597111899999999  3.2659878000000000 11.4569405000000000
 21.7989960099999998 30.7258814300000012 19.8891111599999988
 26.2912703100000016  2.3800251800000001 31.0832120100000004
  5.5443091300000003 13.2035824399999999 12.6100947800000007
 12.8629504800000003 27.6086549800000007 23.6642080399999983
 19.3446057099999997  9.7882471100000004 11.0692050099999992
 15.1285305500000007 25.2130378700000009 10.5274261700000000
  9.4517168700000003 25.0053996599999984 20.7521126299999992
  5.7569048900000004 16.3004971099999985 17.4549927599999997
 31.0633517300000008 21.7525168399999984 19.5505690700000017
  6.4144192100000001  7.1437135200000004 14.3930676200000001
 19.2874179999999988 28.6343427999999989  7.3994349699999997
  7.3034616300000001  4.2795612800000002  1.5863536400000000
 26.8457037199999995 10.7423758100000004 17.1102237700000011
 11.5309604199999995  5.8517307699999996  0.0391279200000000
 27.6229252900000013 18.5053679899999999  9.7197668999999998
 15.1223242899999999 25.9042840699999992  8.3023443900000000
 27.5022465700000005 20.2581424000000005 33.5992964699999987
 13.3758101899999993  2.2418367099999998 18.5496321699999989
 18.6678581799999996 10.6924229200000003 17.5520750800000016
 17.7257895999999988 32.3458763599999983 17.1440530799999991
 20.1001734799999987  3.6155988200000002  7.3693672499999998
 26.9553855200000001 34.1644911400000026 27.6026195100000002
 27.2261664900000007  0.1802148500000000 18.8709579500000011
 29.1903372599999997  6.9983971900000004 22.0614883100000014
 32.4339932500000003 28.1245035700000017 13.5315669799999991
 30.0462497999999982  7.3204341700000004  9.5371420300000000
 25.7461096299999994  9.8644786700000004 32.2930066500000024
  3.5627404299999998 28.9784310299999994 15.4903396600000001
 16.1386943800000005 28.0364056800000014  2.8702367000000000
 10.0681678300000002 25.6967956899999983 21.0452042900000009
 31.7484585999999993 21.3436827099999995  8.2753736399999998
 29.2047305799999997  3.9068534399999999  2.4856985699999998
 22.1359016299999993 23.0986795600000008 34.5073070600000023
 14.3097311400000002 18.6513003700000013 12.4053588200000000
  1.8656398599999999 30.8092010499999986 20.2419924900000012
  7.1677013900000004 32.5572100400000011 34.0291982800000028
 28.7355559800000009 28.4892814899999998 19.3539276499999993
 26.4620245400000016  2.2463955499999999 25.1699828799999992
 21.9022244800000010 15.6868453500000005 28.8098589400000016
 17.2992356799999989  3.2540080300000001 20.1129083100000017
  7.6499322400000000 17.4111493999999993 29.1879503500000013
  1.8815631799999999 18.4324457200000005  9.1151932299999991
  4.0525330999999998  0.9238416300000000 22.0062140299999989
 13.4391880700000002 17.4338589699999993 25.8677700000000002
 24.6103558999999983 31.2515948600000009  0.5548940500000000
 16.1042342299999994  8.8647319200000005 29.5493932199999989
 21.6518976700000003  8.4441174399999994 30.2818864900000015
 12.6662954600000006 12.4278085800000007 29.1788541799999983
 24.0021661000000002 29.4057027499999997 21.6460475000000017
 15.1203056100000008 26.9764646200000016  3.4407875400000001
  9.3161851599999999 22.1239956699999993 32.9952442900000023
 11.0707308100000006  5.7726468600000000  0.8758014100000000
 19.5942900900000012  6.2334811999999999 11.1185214999999999
  3.9908108400000000 13.5577317599999994 14.7977293499999991
 30.4372491799999985 33.8469783199999981 11.1646824400000000
  9.8177781000000000 17.3964513700000012 27.1582311099999991
 13.3903035599999995  0.8319057900000000 16.8406918099999992
 31.5073200000000000 28.5271946400000012 26.5602817199999990
  8.6548413300000000  1.9182054900000001  4.2796597800000002
  3.2419438000000000 27.3494075199999997  6.4922329500000000
 19.9591308599999984 13.1123625900000000 19.4780066199999986
 11.8572419300000007 29.6651316200000004  6.8670586599999996
 19.6549742199999997 11.1517964900000006  3.2436313200000000
 20.7116609999999994 25.8865075500000010 24.5324197200000000
 16.3781945899999997 28.3165178900000001 20.7161478199999998
 31.2963928600000010 18.4747828600000013 20.6754597300000000
 12.4516478100000008  9.8448195399999996 16.8819710900000004
 25.2880712699999997 11.6137840499999996 32.8685896699999986
 17.3866519500000010  2.4593337800000001 34.0228399499999981
 26.8711012999999994 17.5994815500000001  9.4864945699999996
 14.5141876700000001 24.9522024500000015  1.6665927400000000
 10.4241392400000006 23.5081914099999985 22.1730394500000010
 17.2739722799999988 33.6521097099999977 26.0079799099999995
  1.1183220899999999  0.6394421200000000  2.1037820400000000
  8.2646856100000008 24.5710075799999998 34.9244098699999981
 24.5567089600000017  4.6074458099999998 17.3417176099999999
 17.2478057900000010 13.8718682599999994  9.4897934700000004
 34.9589267300000017  9.6816344900000004  4.2308851199999999
 23.4862311300000002  3.0865523100000001  5.6847028499999999
 27.8008513700000002 33.9090557899999965  4.5006685099999997
  7.7356805000000000 23.5821074099999990  4.4792416499999996
 32.6144167400000029 15.5022228000000002  5.8586375500000001
 11.1213629199999993 16.7465334199999987 23.9872025499999992
 22.9132312300000009 32.6772328799999983 21.2529436400000016
 23.2237378200000002  1.3614572700000001 27.0123101699999992
 10.8970055400000003 25.9720448899999994 27.1585411699999995
 18.6014132699999983 13.9527630400000007  4.0884221600000004
  9.1111599099999996  6.2645531600000002  8.3449064100000001
  7.8421015799999996 27.2012850899999989  1.9985220299999999
 24.1597770400000016 18.3726833700000007 19.6894106700000009
 29.9251863200000017  2.6064361900000002 21.3730846700000008
 12.4339722199999994 27.7710256099999988 22.6273654899999990
 23.1318728600000014 32.3872258500000001 12.1048643100000000
 26.4544591199999992 15.0943873400000008 11.3680692899999993
 33.1405708200000007  3.5737858600000001  4.6190098300000004
  1.6982499300000000 17.4865485099999987  1.4208647200000000
 10.4734210500000007 11.7875637100000006 13.5832724400000000
 24.0598783699999998 19.3758163699999990  9.3457161099999997
 28.4506941900000001  0.8172996700000000 16.3556239400000010
 33.9716172500000013  5.9710697399999999 10.7690673799999992
 10.7154400800000005 19.4013681399999989 18.7944066399999983
  2.5924417700000002 31.1688919800000015 10.5675300900000000
 18.4782425400000001  8.8224484400000005 18.8908809899999994
 14.0367328100000002 15.3683628399999996 31.0743296499999992
 31.2585068899999996 11.7253322299999994 17.6587147299999998
 25.0185476199999997 31.7298443299999988 23.4935718899999983
 21.4628069299999993 15.3961046499999998  7.3308652600000004
  9.8524701300000004  5.4655004900000002 18.6668141200000015
 28.1449204100000010  6.6772792799999996 15.0328961200000002
 27.8850908000000004 14.7210512599999994  1.7085072600000000
 14.8815843200000000  4.7876767899999999  1.4838592600000000
 19.2225022099999983 22.5946795000000016 33.7783529299999969
 12.7776963099999996 29.7419443299999990  2.8584039300000001
 21.1949204199999990 28.0274487199999989 27.3306892300000008
  6.8939460199999996 16.5508266100000014 24.7429179499999989
 19.2220507000000005 15.0061927300000004 34.0812803800000026
 29.0792694000000012 30.2807807000000011 29.0811729099999994
 27.2730607700000007 18.3323440799999986  6.7068901299999997
 22.7023648199999997 23.6454579100000011 19.2110734000000001
  5.5106117599999997  6.8517754499999999  7.7900524000000004
 27.4106220500000006 20.3248219600000013 34.2826246899999987
 18.0732195100000013 26.6002938799999988 16.1391809399999993
  1.2141006500000000  0.3896896100000000  4.5132762000000000
  9.6331411899999999 29.2039038899999994 25.0126609600000016
  2.7927190700000000  2.2293821800000000 19.2262251999999982
 15.1668930500000005  4.9714469499999998 10.1089117099999992
 10.4791789099999999  3.5598760999999999 15.8375728200000001
  7.0863143500000003 29.6852872900000015 30.6234300300000015
 12.9885183299999998  3.0275532500000000 29.0875525999999986
 29.4966283999999987  9.8335529600000005  2.5245321299999999
  9.8115049899999995 16.9643396600000003  9.6567281999999999
  5.6309120000000004 33.7379628999999994 33.9424537000000015
  5.8194156899999996 16.9195458899999984 26.8077854299999991
  3.4497360200000000 19.7132927000000002 11.3104732800000001
 10.1243494100000007 24.9406161299999987 16.9353338499999992
 12.1561002200000008 12.5763682499999998  6.0210953800000002
 11.5500080100000009 10.9846303800000005 28.6827623100000011
 16.1860931999999984 19.6683668699999998 26.2419330500000001
 13.1687670899999993 22.4685448100000009 13.8326892800000003
 16.0086676600000004 12.6773999100000001 24.0602622900000007
 25.8283447700000011 26.9905286300000000 29.8146311100000005
 34.5050652799999966 11.6321807800000006 27.0623773000000014
 12.3753539299999993 22.5735366299999995 28.4301961299999988
  6.3063555200000003 10.9172139300000008 15.6145569200000001
  3.8581477799999999 23.8897755600000004 30.4578713500000013
 30.4438455499999989  4.7120773099999997 25.8833364500000016
  6.2357842300000002 14.8254742099999994  6.7450083799999998
 33.3557649600000019 15.3416844799999996  2.6909909200000000
  7.4843930199999997  0.1935405900000000 32.8366409099999998
  5.4237615600000000 17.1606146200000005 18.4499659300000012
 23.5774059999999999 30.4626131999999998  5.1400767700000003
  9.2702507000000001 20.1034613700000016 23.8751659899999993
 29.9147318200000001  1.8977547699999999 10.5644617200000006
  1.9081432400000000 10.1634813800000003 17.6314743100000015
 22.1887029300000016  0.5300637700000000 18.7818376299999983
  1.3450001800000000 30.4180897299999984 26.8341456899999997
 26.4866471200000007 31.0781923300000003 26.1785138199999992
 32.2818023700000012 25.2525088099999984  8.9156072500000008
  9.6110315800000006  7.6077349200000004  8.2008676600000001
  1.9827924500000000  4.7926541599999997 15.1385506500000009
 18.6208515900000009 25.6526908300000009 14.7747095900000005
 28.5441284400000015 31.1667476800000003  9.5283127400000005
 17.3522004299999999 18.4325652499999997 11.1241439500000006
 28.4873715700000005 22.2539958700000007 12.9085774600000001
 24.4613593999999992 12.0673975299999992 26.7503060899999987
 17.3945288299999987 29.8460090600000001  1.8743531000000000
  2.2525051000000000 22.8532780399999993  5.0440868099999996
  5.9669489599999999 11.5112170200000001 24.0245137000000000
 20.0016942499999999 28.4752271199999996 28.1422464499999982
 31.7361147400000014 23.8804863199999993 14.3335833099999999
 34.5347605299999998 20.7202963000000011 31.0199121899999994
 26.6641037499999989  3.5918042300000002 27.4536767799999986
  8.9456408799999991 24.3863348500000008 11.1297797999999997
 18.2090969499999993  0.2924248600000000 14.7845451200000007
 18.8497650499999985 23.0012370900000001  6.7917204099999999
 13.4448880499999994  8.2334710599999994 24.9480709999999988
  2.2293228699999998 18.2294196799999995 26.8565061900000011
 17.2995855799999987  9.1348592800000006 19.5799859100000013
 10.8231094199999998  9.0000286599999999 28.4816504200000011
 31.0985579100000002 18.4627385299999993 28.2464188299999996
 32.5613248200000029 33.1862449999999995  1.2197710700000000
 25.6924055100000004 17.2594080000000005 33.8702019899999982
 16.4848528799999983  0.9223698100000000 32.2693304499999982
 25.6368260799999987 28.1359439100000017 30.8092982299999996
 21.8753948800000018 19.7617758099999996 21.1659787600000016
 31.6049813700000009 24.9218400799999991 16.3662640900000014
  2.8005546899999998 28.9227585400000002 24.8027756799999999
 10.2508302100000002 15.7033070000000006 25.4807777999999985
 30.4324193200000011 22.6715633099999998 30.9645499899999983
  6.1917583199999999  9.8821360800000004 14.0611025999999999
  4.9513411500000002 22.1907445000000010 34.8427449400000029
 17.0141264200000002  6.4227805399999998  7.6724737999999997
 11.2670976199999995 16.1097141899999983 30.9663845299999991
  2.0247965799999998 10.7561274800000000  3.2346084300000002
  9.0638213899999993 15.6461067899999993  9.1167745999999994
 30.6307265800000010 30.6216200600000015 17.5682819200000004
 10.1141974599999998 29.3167659500000006 31.8853564700000014
 12.1861279699999994 27.2527853399999991 27.5631870600000006
 29.4849913599999987 24.2498459299999993 27.1606085600000000
 18.3479883400000006 24.6400264900000003  4.9252649999999996
  3.9288578099999998 22.3131472200000012 27.0652635100000012
 25.8838167100000014 14.3074710300000003 15.6655867200000003
 21.5160276099999983 34.8760735500000010 17.1681533299999991
  5.1530144599999996 16.7141027499999986  3.9249591399999999
 26.7883184700000001 26.2685256600000017  5.1107234000000004
  5.9282163600000004 25.5322922599999984 21.2359451499999992
 17.5300717599999984 32.9161459500000007 11.6649825099999997
 18.3610239200000009 33.7290596300000018 24.3052083500000009
 12.6367889099999999  6.5111726799999996 23.2792085499999999
 23.6581293700000010 22.1803944900000012  0.8901833800000000
 16.3120959799999987  2.3971722999999998  4.2747812100000004
 26.2477731600000013  6.3235684799999996 20.2154317399999996
 15.7612644000000000 19.5706921999999999 29.6237664999999986
 11.6435553499999997  8.2348295599999997 12.7803684900000007
  4.6532512700000002 17.1941519700000001 22.1121237300000004
  8.4634861600000004  5.8118894699999997 30.4263223200000006
 25.1991888000000017 22.7660781300000004  9.4750878699999994
 32.8018333400000017 15.4128728299999995  9.1537264700000005
 21.6808326600000001  4.7545503199999999  4.7272983799999997
  1.7037901700000000  5.6014420200000004 28.4360100399999993
 34.0206888399999983 25.7173841600000017 17.0755988999999992
 24.5907476699999989 16.6960206000000007 15.0181578699999996
 25.1793297799999998  3.9956518299999999 24.9202361299999993
 24.4086873599999983  1.8084960299999999 15.3926972499999994
 20.0626212899999992  2.4760896699999999  0.6391632800000000
 32.4172347299999970 26.4640786599999984  1.7699973600000001
 33.3456621300000009 20.5434379900000010 33.5622847500000034
 21.3198591300000011 27.8723742799999989 10.9946072099999999
 21.3633106700000006 23.1623946399999987 20.3667946200000003
  4.7171528399999998  6.1878656300000001 14.4575631199999997
 18.2634308599999997  3.4824251600000000  9.1196797600000004
  9.4577617200000006 21.6012208200000018 31.7183124599999999
  4.6774895000000001  4.5660244299999997 21.1726323600000015
  3.4320976600000002  3.2654126500000000  1.7904744300000000
 27.5037935599999983 11.2583585100000008  9.2314205299999994
 32.4848339699999968  7.6046035600000002 25.5720562600000001
 24.5495343199999994 24.0232875499999992 34.3939248200000023
 33.6945115899999976  3.6562682700000000 25.9007444699999994
 18.8123115900000002 23.5208790900000011 25.4149138500000014
  8.4570159900000004  2.0677756899999999 33.1059440399999971
 16.6015241300000014  1.8160572100000001  2.4734854899999998
 26.8706627800000000 10.2293113600000005  4.0360222700000001
  3.4262233900000001  9.5364688199999996 14.4314493200000005
 34.3687822099999991 31.1226560700000014  3.4805173800000002
 12.0556318800000000  4.0050732800000004  8.2665869300000008
 21.5265819799999996  2.2633546500000001 30.2015772200000008
 27.9083478300000003 20.6019419200000016  1.8379304900000000
 20.0977720600000005 33.2549734199999989  1.3382240000000001
 21.5307991299999983  3.1409112499999998  9.2954487700000001
 23.6074765999999983 10.8591736599999997 20.1317444499999993
  9.2289558300000003 26.0605658600000005  9.9303627199999998