Na Cl 
 1.0000000000000000
    35.0000000000000000    0.0000000000000000    0.0000000000000000
     0.0000000000000000   35.0000000000000000    0.0000000000000000
     0.0000000000000000    0.0000000000000000   35.0000000000000000
 2500 2500
Cartesian
 33.7396701300000004 27.6358800000000002 26.2351955799999992
  4.9320434300000002 12.8539497800000007 16.3338983900000017
 18.8301680699999991  8.6346696400000003 12.8925678900000005
  0.3885146100000000 19.7650769100000012  6.6476974200000001
  7.8504623799999997 27.7212798400000011 26.5502293199999997
 14.7041123700000007 32.0165773499999986 12.6154663899999999
 33.1435634899999982 18.8715131800000009  3.5220695200000001
 10.4224007499999995 29.2893809400000009 26.6255415100000015
 20.4761957899999985 23.4225893499999991 18.4591700600000017
  3.2712685300000000 30.2101592900000000 32.1471201900000025
  1.6490633200000000 30.8071600100000005 20.9383507800000004
 20.8615579000000011 25.2035768299999994 26.5157165900000003
 29.6487632599999991 11.7640746299999996  3.8022671799999999
 29.7044897600000013  3.3594191800000002  6.7581780800000004
  9.6989098400000007 14.5776798799999998  7.0657940200000002
 34.8001644200000015  1.3633688900000001 24.1410038600000014
 17.8518240400000003 15.6066401100000007 10.8003613299999994
 11.6729291400000008 11.9200893200000007  0.9412366200000000
 34.3638769800000006 18.6803475299999988 10.6009292599999991
 19.8180817900000008 22.5006528800000005 28.4729023199999993
 24.0693327199999985  3.2749436300000001 21.9775872800000016
 22.3094594499999985  0.0849974000000000 28.5513289000000015
 12.1847998499999992  4.9310801800000004 31.6645571200000013
 11.2114790800000002 26.3288350899999983  3.7312767500000001
 26.5682742000000012  2.9844519100000002  4.6833141100000004
 32.4603251200000003 15.6842409400000005 20.0375235200000006
  0.6577961200000000 30.5793437600000004  7.0305696900000001
  2.7847925999999998  9.0091594300000004  6.9425858700000003
 29.0406488600000010 11.1853499599999999  7.1766988899999999
  8.7782777400000001 11.5140115999999999  0.9929818000000000
 29.0450557099999997 15.2513693999999997 24.7654599699999984
 13.0856687699999998 25.8349889499999996 33.6593174699999977
  7.1487495499999998 29.0336076200000015 32.8432508300000023
 11.5167644199999994 12.2596593699999996  3.0949543799999999
  6.8982704400000001 19.2313439099999997 31.1970440400000015
 28.7192535400000004 34.4943156799999997  5.9635769700000001
 24.8382075700000016 10.7546104699999994 12.7381365800000008
 29.8614311699999995 16.0736460799999996 19.7697490100000017
 15.1715385200000004 13.0479719200000002 22.2641399299999989
  8.3998489400000000 21.2612056400000000 22.0832118000000008
 12.5406542200000004  0.7754353800000000 12.7424093099999993
 31.6733388699999985 18.8063551099999984 28.4102680300000010
 21.3747699400000002  5.7584243300000004  6.8377834799999997
 17.6269481500000005 16.1175676800000005 22.9599804200000008
 13.3909002299999997 10.8602240499999994  2.7855290600000000
 21.3869146000000008 34.8737347499999970 12.8599397999999994
 12.0082428300000004 12.5371919199999997 12.5846190000000000
  4.6915625399999996 31.0916212999999999  6.8792245799999998
 14.1274801300000004  0.5586036700000000  8.4518309800000004
 19.9233062300000014  6.0078616299999998 34.1303460399999992
 13.7258758800000003  5.7958912800000002  6.5446757299999998
 26.3650325199999997 17.1014906700000004  4.7537443200000000
 26.1807140899999986 34.2616710499999968 15.9053078600000006
 25.5091650600000008 17.5371244900000001 11.4513607299999993
 33.0198394100000030  4.4409674600000004 19.3401220599999988
  4.4315028500000002  0.2684233600000000 31.3914031199999997
  5.3123037000000002 33.8882964800000011  5.5990138099999998
 22.6250553500000002 19.3052158399999989 12.7625586599999998
 20.3234281400000008 10.8567362299999992 14.1657493799999994
 13.7498997000000003 24.5643076700000016 27.3190785500000004
 21.7531723700000015 30.5680230000000002 26.7626109300000010
 14.2019537400000004 27.2365308699999993 34.3743764199999973
 20.1445083700000005 13.7522416599999993 28.9256622499999985
  3.6054316800000001 11.4902209099999997 21.1427589000000005
 26.3489088900000006 26.1117332600000012 29.9009737899999983
 15.6665401800000001  2.5407925900000001  3.1011192699999999
  5.5115339399999996 22.3508823399999983 31.2795574800000011
 15.5225374299999999 32.2865791999999985  0.5365786299999999
 23.2770480699999993 22.3469065600000008 34.4585254599999971
 34.4373273100000006 28.1600239499999994 15.5224747999999995
 31.2338933999999995 18.0463844299999998 30.5831862299999990
  1.6109121900000001 19.6012573299999993 18.3319702500000012
  0.4239200200000000 19.8237324199999989 12.4708263499999994
 17.1784159099999982  2.6362534499999999 32.5117871899999997
  5.6073784900000003 23.2102437500000001 19.5666983499999994
 32.4992278799999994  4.5229210399999999 31.7338795800000000
 21.3141486700000016  1.8966297599999999 26.6563840399999989
 13.8465676999999996  4.2633508999999998  9.1385045100000006
 10.8453131799999998 32.1786503599999989  6.5765173199999998
  1.5266057500000001  2.6628908000000000 25.2056619300000015
 26.5600458800000006  4.6911766200000002 24.6054003799999990
 17.9642341099999996 14.8826311699999998 22.3820201300000008
 29.6123170900000012 29.2132490300000001  7.0765046299999996
  4.8132706699999996 11.6400927000000003 20.0379868799999983
  8.4454248500000002 17.2554356200000001  2.1064198599999999
 17.5985630200000003 29.0487464099999997  7.2809416300000001
 10.7860130800000000 15.5218697799999994 21.0653266099999996
 19.9443836599999997 10.2562178900000003  1.2540080100000000
  6.1127048200000003 11.2299497499999994 21.7654110199999984
 26.2630469200000007 18.0296150100000006 28.7395068699999996
 24.8920332000000002  5.4020504599999999  2.2621350699999998
  9.7041987299999999 33.4681340500000033 13.9290333000000004
 25.2626710000000010  4.7114810299999998 15.8615923500000005
 25.7826890199999994 29.6543502500000002  0.6645790800000000
  4.5805863000000002 20.9139994899999984 31.5894821099999987
  9.4257959699999994  9.3529027500000002  9.2364597199999992
 12.1785150200000007  4.3020178900000001 29.0146155899999982
 28.6441544800000010 32.3043223399999988 18.7455091600000010
 20.7724459500000016 32.4990361300000004  1.3002178400000000
 12.7611669299999999 31.9326018100000013  1.2385569800000000
 26.4271986400000003 11.9276174499999996 22.4665091799999992
 14.6197160600000000 13.5677998100000003  9.0114243199999997
 10.0085589299999995  3.8499974699999999 26.9074953800000003
 34.2748494800000003 27.3952754200000008  7.3940660300000003
 22.0677719799999998 33.0436070100000023 18.9030415699999992
  8.4196659199999999  4.3251847200000002 33.3796167900000000
 31.2193922599999993 19.3256541199999994  6.2687535299999997
  8.9405963300000000  9.6025331499999993  4.7747350099999997
 28.9712525499999991 34.8415356000000003 31.6887715300000004
 33.1831501500000030 19.2045470199999997  0.8217378100000000
 20.9473014800000001 31.2959189600000016 10.5099259899999993
 30.3261553699999986 21.6932765399999994  3.8988117000000000
  7.3282929100000000  1.6189411000000000 14.5430856500000001
 20.6405563699999988 20.8309140600000013  0.1725992800000000
 30.8760889100000000 24.4263295999999990 18.3215697300000002
  0.6224713200000001 31.8755110299999984 21.7139462200000004
  1.2941642499999999 16.0185230899999986  3.3174964100000000
  2.1621279900000001  8.8851964399999996 23.4966040000000014
  2.4234277299999998 25.5498200599999983  0.8258060000000000
 19.3214764800000012  6.0551860900000003 24.5126708499999992
 34.4589394099999993  6.3946956500000001 25.6498606400000000
  2.2077198999999998  5.1484187300000004  9.4735905400000000
  7.6362603800000004 32.6281653100000000  1.5742881799999999
 34.0613847899999982  9.6941600599999997  4.7480482000000004
  0.4460217400000000  6.2873226899999999  6.0324885000000004
 28.0341845499999991  0.5397466800000000  6.5224599799999998
  2.9848035500000001 10.5932011999999993 29.9325967300000002
 22.1531634699999991 33.2183922099999975 16.5179469800000014
 32.1349197600000025  6.5963886499999997 20.5041177899999987
  2.7076167999999998  6.9156331800000004 31.0469133900000003
 25.4733077700000017  9.8836819899999995  5.0432397900000003
 26.7311745999999992 10.8514740100000004 30.7237070400000007
 18.3442320899999984 31.5087362599999992 17.3302749700000014
 34.9314514000000003  2.9037386900000000 13.1361868099999999
 34.8916889699999970 34.6164461199999991 28.6099391800000014
 17.2477926699999990 13.6513603000000003 13.4126125399999996
 25.7789738899999996  2.2141675500000000  8.5139710300000004
 14.3111563299999993  7.6044904700000000 23.6713050900000006
 33.6246169300000020 18.9367126600000013 14.3296352400000000
  3.1793974800000000 26.1334806899999990 10.4100275399999997
 31.3328493600000009  1.1992755799999999 31.2247411799999988
  4.2249664200000003 29.0105733999999984 30.7071604600000008
 20.2459008800000007  2.8560621199999998 16.8360311500000002
 23.1754988600000011 30.6093171899999987 20.7940016800000009
  9.7862084399999993 11.8052821199999993 31.3766618900000012
  2.5564147899999998 20.6633639900000006 19.1586540200000002
 34.4980634200000011 33.9518794399999990 24.2378082200000016
 34.8427803699999998 17.6096348599999999  5.1330803500000002
 31.6814396199999990 14.9556356800000003 24.3688088799999996
 31.5708722299999991 11.6496443400000000  5.5724339900000004
 30.8981285300000010  9.8462735299999995  6.3191829899999998
 16.5085252500000017 13.7839122700000001  1.2135100900000000
 25.4640924599999998 30.0019083400000000 32.0734003900000033
 22.6403452700000010 31.2829939099999983  3.2786381300000000
 14.0709835600000002 31.0206748700000006  4.4826009100000004
 19.0734923999999992  3.1866871400000001  8.6507130199999995
  2.5338027400000001 25.6226991300000009  0.7042100100000001
  5.6575948000000000 27.1958086700000017 14.9563106999999995
  0.7138746300000000 28.0908756299999993  8.3466716499999993
  2.5104195699999998 17.6216450299999998 31.9879788000000005
 21.9596244300000016  0.4077739800000000 28.4573309899999991
  7.3620014300000003  8.1581113700000003 18.3777761800000015
  0.2842981400000000 18.1989053299999988  4.0018462799999996
 24.0303958100000017 13.8623950100000002 25.2729156199999991
  1.8928569500000001 33.2467881099999971  3.7678313000000001
 10.9406872400000008 25.1304047900000000 21.7132740999999996
 24.9978567799999993 33.9789398200000008 24.0416263699999995
 27.6144643000000016 16.3015690299999996  0.4706295600000000
 34.8709453100000033  0.9777574200000000 18.1689956399999986
 26.3097268500000006 32.5791099400000022 17.1008009799999989
 28.1621479400000005 16.2203841799999999  0.9969946000000000
 26.4881667000000007 21.6176700799999999 28.1810498900000006
 18.9055085399999996 14.8820093300000007 11.9307648799999999
  5.3654085800000004 16.4220430099999994 30.2768353700000006
 32.7721028300000015  5.7322620300000002 22.1279402099999984
 29.2911660599999983 21.6280454599999992 27.5601094400000015
 12.7593038399999994  0.6196505900000000 19.4673966400000005
  8.5353358200000002 23.3890476700000001 14.7241487699999993
 18.7683807499999986 20.1753333800000014  6.8281464400000003
 30.6571449099999995 19.6345185399999984 17.3530519400000003
 32.7439423399999967 22.4389204299999996  5.9355906300000001
  9.4717324099999995 11.4065817299999992 15.4190708099999991
  8.3230535000000003 25.5602186700000011  0.5952057200000000
 28.6224554200000014 17.6082718299999996 17.2246322899999988
  9.3948325799999992 13.9511184299999993 11.4474077300000001
  1.5817516400000000 19.4997311800000013 26.9819818100000006
 26.1683540299999997  1.5261952700000001 30.7638680300000011
 28.3300358500000016  2.9124777399999999 20.0133847799999991
 14.9579491800000000 28.2518940299999990 19.5829919399999994
 26.3454535400000012  3.0376080499999998 23.0785482299999991
 11.1601765400000001  4.0871290399999998 22.3778411900000016
 29.3768358099999993 26.4795167499999984 16.2380087400000015
 17.2128619299999990 21.5704360400000006  4.3184494600000001
 25.1801466500000011 17.7246687799999982 13.5081968799999999
 22.2648818900000016 20.8699161400000008 25.6805656700000000
 28.2672780299999999 33.1418531300000012 25.1254936800000017
  9.1723533100000001 19.7421380599999985  6.1143300700000003
  3.5455437399999998 19.9535882999999998 24.9585720299999991
  3.7200542300000001 12.9515228300000000 11.2441554999999997
 15.5215622599999996 15.8969488800000001 25.0198496800000001
 18.6135467299999995  7.8798884100000004 32.2844625700000023
 34.9624823999999990 34.4417552999999970 32.5813214200000019
 19.2691286300000009  1.2448854700000000 27.7901004500000006
 28.2182642299999991 14.3668693899999997 33.9738486099999974
  8.4735833500000002  0.5153586300000000 16.6324140699999994
 30.9832709100000017  5.8341468399999998 19.5058765100000002
 25.2665377999999983 34.7007904499999995 11.1851765099999998
  4.2616111300000004 14.8983280600000008  6.1996536200000003
  2.5783442700000001  4.2321368000000001  9.5232377699999997
  2.0572585600000002 31.3445768300000012 23.3027069900000008
 33.5963663900000000 34.1299469000000002  7.0175034700000003
 28.1807843600000005 14.4427562599999995 14.4044543300000001
  0.6639428300000000 28.8871831899999982 21.8879258400000012
 20.3696073700000007 16.9910450100000006  3.4934093800000001
 18.7314040599999991 28.7080426899999992 21.0734192000000000
 15.9564288500000000  9.6996436500000005 26.9107856199999986
 19.5738615500000002 12.8910922400000008 10.5872591400000005
  0.0644074500000000 32.4960073000000023 20.3946555499999995
 17.9757911099999994 34.1211027100000024 33.3732287200000002
 28.8550282399999993  6.4596365400000000 32.1113652399999978
 30.7155828600000014 21.8010503600000014 30.2533181599999992
 22.5183065999999990 10.1790916899999999 34.9940292200000016
  4.6491585300000002 18.4074490399999995  8.9960435699999994
 31.5042083999999996 11.2306517400000008 33.5638192099999983
 12.1094285100000008 33.1649304700000016 27.9863841099999995
  2.1577768000000002  5.7546237900000001 12.9619707399999999
 11.8421720599999993 21.3858608600000011 17.1635220199999985
 32.3145285100000024 15.2807009100000002 27.7401636700000012
 28.9307513800000002 19.1384125699999998  9.3000357000000005
 30.7000704300000002  6.0836765200000000 13.3513081299999996
 10.4356999500000001  7.8091173800000000 32.8357974199999987
 26.2471545500000012 30.9265499699999999 32.5253950700000019
 24.3149411800000017  1.2164371700000001  4.6595539300000004
 18.1228859399999997 21.3439732599999985 13.1585976099999993
 26.5499535699999996 10.0696104200000001 14.9422615499999996
  9.5898487600000006  1.5881930399999999 22.7603710100000001
 18.5554975499999983 12.2472401000000009  4.3643166200000003
 26.0693792699999989 18.0574709899999988  6.9148725700000000
 18.2632044399999991 34.6770878999999965 32.8163287900000000
 14.0380040499999996  1.7340770000000001 24.6321379100000009
 12.3419130599999995 20.5327286200000003 28.5699966500000002
 10.9336517799999999 11.8855483000000000 15.4103573100000002
  1.8753666800000000 19.2877717500000010 34.5798398700000007
  8.3686426300000001 21.7766001399999993  4.3185302200000004
 26.5374347300000011  9.6655775100000003 14.3611985499999992
  8.6640107099999994 16.0280643500000011 23.6774546199999989
 31.9798450299999999 25.2553760099999991 22.1046759000000002
 23.2878318499999999 28.5899267399999992 30.8986559599999993
 18.7106932700000002 30.6218565299999987 21.5426296199999996
 26.9760833899999994 32.0334564200000003 16.3020991700000017
  9.3807944299999999 23.0119905399999993 12.5249700199999996
 17.1711878499999990 21.1541758500000014  8.2335607500000005
 26.4554688499999990 32.0650081799999995 21.5925010499999992
 25.1651653099999990 10.9333473500000000  6.7689420100000000
 15.6082918999999993  3.5619018400000000 14.8842748199999999
 15.0068731000000000 10.5161928400000004 30.6530806799999986
 21.3269068100000005  6.3226729600000002  5.1644627500000002
 34.1255083900000002  2.4195257099999998 29.9685631900000011
 31.6416156400000013 10.6340101400000009 15.8084802500000006
  8.1275946399999999 30.4831235199999995 34.8570109599999967
 11.7832446399999995 10.9926018699999997 22.6595601699999989
  4.2277123300000001  5.1611076499999999 12.7362830900000006
 33.7098205500000034 15.9539883099999997  3.6816032299999999
 31.7054383400000006 33.3022107700000021 25.2564307799999987
  4.8321457800000003 13.8740659999999991 11.4272041000000009
 12.0192250999999999 22.1163193900000010  8.9800123500000009
  7.0675939799999998 30.0519382300000011 32.9258348999999981
 34.5072302600000000 13.0190063200000008 25.4392798000000013
 32.9756224099999997 31.2858830499999989 16.8364070300000002
 29.4929832599999990 18.5695952899999988  4.1881041200000002
  4.4659477100000000 19.1831574099999997 26.3266618600000015
  2.2058461999999999  8.6571436899999998  5.6139273599999999
 28.2771313299999996 23.7463396499999995 34.7304233300000007
 19.2249890000000008 29.3901131800000002  4.6321964700000002
 13.3260007300000005  5.0942097500000001  8.3832094500000007
 21.6012398400000016 32.0379805099999970 22.3384462100000007
 32.2654094900000032 29.7372707699999985 29.3099097600000000
 21.6533782200000005 33.3278237099999970  0.7331540500000000
  2.1200549000000000  1.7627552300000000 16.6271890499999984
 13.1663206800000001 16.3516182199999989  1.6473888100000000
  2.6637709500000000  4.9983215999999997  6.7911042200000002
  3.0886840599999998  6.5129995500000000 18.9835030300000014
 30.7355058200000002  6.6463502099999996 20.2079934799999990
 30.7464028399999982 14.7925868699999992 14.0074446399999992
 13.1220201999999997  6.7935005899999998  8.3643933599999993
 20.3591414499999992 16.0903436199999987 20.4051543399999993
 19.4289950299999994 28.1195117100000012 34.6333581000000024
 32.8496223499999971 13.6028227499999996  2.6419305700000000
 22.9270854200000009 20.5245927200000011 31.8298643299999995
 24.5297950600000014  7.2656469000000001 33.7274277499999968
 31.8781277299999992 30.6928195300000013 24.2178329099999985
 14.1176400799999993 10.1768164799999994 31.7546629399999993
 20.6201136100000006 27.2493903899999985  5.5042202099999997
  4.4290658499999997 29.3098242099999986 20.2155568000000017
 17.8630749900000012 29.7013869899999996 21.2110685900000000
 19.4297340600000013  5.5402727799999996 15.3646528300000007
  3.7201587500000000 14.7081905400000004 30.5583931799999995
  4.9141555500000003 27.2123097600000001 12.2901230300000002
 25.0977139999999999 32.2792208299999999 16.8644872499999998
 11.4372544600000001  5.9357137000000000 11.5401244100000007
 19.8709211400000001  0.5716471200000000 17.6731688899999995
 22.9495581500000014 13.2237644299999992  1.8088516699999999
 21.3699693699999997 30.0752488199999988  4.7068363000000000
  7.7976678300000000 15.4032997100000006 23.2582489400000014
 21.3899619299999983 16.0901995599999985 17.9839496099999998
 31.2411661199999990  0.2790108500000000 34.3352956000000020
 28.3132203300000000  0.2941443600000000  8.6842353800000005
  5.9439514500000001  9.9920010799999996  5.5621115999999997
 32.4095924100000019  3.0197020999999999  2.1331276899999998
 11.4771544100000007 11.5340939799999997 23.5175217699999983
  3.9884350199999998  8.6274392700000000 31.3718671600000008
 26.9713036799999983 21.7009022499999986 27.0640608000000000
  5.6699484499999997 24.8236327400000008 10.7954746099999994
 34.5417970499999996 33.9829577699999987 21.5712970000000013
 18.7887018499999989 11.7120224299999993  3.9609283999999998
  1.3236114600000000 20.9378056199999989 11.6991100100000001
 31.9419308000000015 18.0309430299999995 16.0595685000000010
 28.1677276399999990  4.9984450899999997  8.8666182199999994
 26.2524106900000014 14.2664190699999995 25.7052384700000012
 22.9430313400000010  8.5277684899999997  1.2049904800000000
 22.2749927399999983 15.8029327100000003 19.8899836699999994
  5.9554601199999997 28.4182911500000017 16.2193556299999990
 18.7099927800000003 18.8486492500000011  4.2479258599999996
 29.8899054000000000  4.6400039800000004  4.5468600500000003
 14.0768010799999992 23.7958190899999984 26.3313850100000018
 11.5878878299999997 17.6308120700000011 11.0583927499999994
  8.4069670300000006  0.8948513500000000 24.7666345899999989
 32.8275678299999996 27.9325132700000012  6.7504746100000004
 20.2267744699999987 31.3984712500000001 19.1063756500000004
 30.8554962199999991 28.3249889500000016 23.0892311499999998
 15.7078877400000003 32.4692809200000028 26.2043398799999991
 11.3403417900000001 22.1245395400000007  7.1360522599999996
 25.6303926199999985 25.0087045500000009  6.2973813999999999
  0.0892256300000000 29.6151530899999997  6.8780292100000002
 29.0368771899999984 17.7949286300000011  4.3655434399999997
 11.6886534599999994 31.1987350899999996 22.1406743800000001
 33.3142686400000017 17.9131016299999999 30.4990369200000018
 22.3134365700000004 31.9284910999999987  2.1499909900000000
 14.8986298000000001 11.2710626299999994 12.7496831600000000
 13.9248659600000000 25.2222228500000014 24.8994292699999988
 24.7077255600000001 22.7435678099999983 16.1442498900000011
 16.4079649600000010  3.6671441599999999 33.6919770200000031
 31.0576925700000004 31.6390816800000003  3.0458435200000000
 21.4920756900000001 17.3162050900000004  8.4589955799999998
  0.3387279700000000 23.0009420400000018  1.8328937100000000
  5.4446316000000001 17.9233016700000007 26.9312336399999985
 13.2438623300000007 24.5941662699999988  4.1524496099999997
  0.2206542300000000 33.5356391799999969 28.4876533199999997
 26.9893014600000001  9.1896045399999995 29.6835268899999996
  1.0364671500000000 24.9034661399999990 22.5554207099999999
  3.9558265600000002 20.5769706899999996  2.1463745200000002
 24.1165025600000007 26.0585616599999987 11.2457868199999993
  7.9390555799999998 11.7071277800000004 26.6966697599999989
 25.9287035999999986 33.7213354699999996 34.4851908699999967
 27.6028973200000003 31.8951827299999984  2.3361763600000001
 29.1160464599999997 18.3927894999999992  7.6130563499999999
 27.6380719900000003 28.0759113999999990  1.8429692900000001
 34.7848789600000003 24.4606457000000006  0.0723126900000000
 25.3593084699999984 18.8974666099999986 19.7213165900000007
  6.1679333400000003 29.4555793600000015 19.9222369099999987
 23.0357785799999988 27.3305434799999993  4.4442533099999997
  4.5654488600000001 11.4990442999999996 29.4375080099999984
 31.1970465399999988 28.7611637500000015  3.8791711800000002
 27.2300773300000003 30.9096640200000010 28.7231668099999986
 30.2645793599999990  1.7853509999999999 11.3942049099999991
 17.4020022599999997 15.4519962900000003  1.7015968800000001
  3.7388123599999998 13.2192773799999994 31.3948575199999986
 28.3702674600000009 14.0851895299999992 24.7803871099999995
 18.9661964699999999 19.8641486600000015 26.7465370200000017
 24.0476612500000009 24.0426446300000016  9.7283468299999996
 19.3252127499999986 33.8506468200000015  2.8211716500000001
 25.4319704299999998 15.1269433400000004 33.5367799799999986
 12.6611623099999999 31.1549618799999983 21.4442372699999986
 18.2957208700000002 21.1807137300000008 34.2556838799999994
 20.2788999300000015 32.4710935800000016 21.6697735700000003
 28.8844241100000012 10.5160618699999997 28.4518360600000015
 20.0086136600000017  4.7697523899999998 15.2283579600000003
 23.0123138400000009 17.9587790699999985 28.1998067100000007
 19.1513492499999991 16.7269045399999996  9.0845679300000004
 14.3332798399999994 29.4343156899999983 12.5437633999999996
 18.0314376799999998 24.3731292400000008 34.1831827199999978
 26.7519467599999992  9.9692539000000000  8.2503517599999991
 28.6620960800000013 18.8488123099999996  6.9885247100000001
 31.1348684300000009 33.7337036200000000 32.3568063399999986
 25.8441618899999987 12.8288915299999999 15.1798679199999995
 13.0401171999999992 30.2497259000000014 32.1432288299999982
  6.2469520400000000 27.5229402500000013 18.0567094899999994
 29.1163717800000015 23.8605649799999995 29.5156757499999998
 14.9623437199999998 32.1108277399999977 21.6818787399999984
 22.3360192799999986 26.4760947100000017 28.7237819799999983
  5.6038001299999998 33.0688222300000021 22.6952237200000013
  8.6250330300000009 25.9301605700000017 23.2086752599999997
 28.2051779099999997  4.4251141900000004 32.8941981199999987
 27.7877724899999983 24.0922094400000013  2.7641167900000001
 11.5108118699999995 17.2150637300000007 23.5760534600000007
  7.7305714999999999  7.7152144800000002 29.6096957200000013
 20.1560337700000005 32.4595766600000033  3.1048784999999999
 33.6929520699999969 12.4454054299999992  9.9290525400000007
 32.5860409200000021 28.5898115200000014 28.9622948099999995
 24.2888398300000006 17.5310656400000013 14.6202397800000004
 22.3700390499999990  3.2463710600000000 31.7583784700000002
 13.0668704600000005 24.8917404699999985  0.4821208200000000
 18.0046856999999996 29.7524806599999998  4.9424523599999999
 12.7967426999999994 34.8545736399999981  5.8191670300000000
 12.7403038399999993 31.2866059199999995 28.9857104800000016
 32.8360962400000034 31.2695313599999984 22.0136461499999996
 33.3507806799999997  1.5708497600000000 11.2718655000000005
 26.2434003199999992  2.8292261800000000 20.8044055800000010
  9.6446331099999991 12.3486011999999992 27.9402876000000013
 32.4136268600000008  0.8265827200000000 32.3758212700000030
 30.4281199499999992 20.4120655500000012 30.5857370700000004
  9.4828629699999993 23.4778599600000000  2.3923425900000002
 28.1018314999999994 17.4820439800000003 30.7132252000000001
 17.1759079999999997 30.4858156600000001 10.1038734800000007
 30.8016593100000016 33.4879942900000032 32.7200038200000023
  5.1042166099999999  1.5685977600000001  8.4225654599999995
 18.0577164500000009 11.0404257200000000 21.4351572899999994
  5.6886031800000003 23.3536202599999996 14.2956973099999995
 27.7847620599999985  8.4959061400000007 25.6944394400000000
 16.4436193099999990  7.9096984199999998  8.3012694000000007
  9.4348383499999997 21.3280802600000001 26.0448495700000002
 25.7867609500000015 28.0912536000000017 14.6992181800000008
 19.7599885499999992 26.1275909000000013 16.4203090799999991
  1.1347233299999999 31.2949286999999998 28.8666430500000004
 26.6697127000000016 27.8612828599999993 34.5810179099999999
 28.1680655000000009 10.6768673100000004  1.1088054899999999
 15.6939292899999998  7.8696361200000000 34.9743428700000010
 23.7806716899999984 16.7490629099999992 31.5003142899999986
 15.7822474899999996 22.2335825699999994 19.8223064300000011
 23.5042140300000000 25.3251629800000018  5.0141488200000000
 27.7992993400000010  7.8239235799999998  1.6835431000000001
 15.3089108899999999 11.8654091899999994 26.9322916399999990
 31.0255689500000003 16.7372722399999994  8.3346097799999992
  9.7866376000000006 19.0182205599999996 19.2329703999999992
 23.5334561800000017 26.7979472799999989 13.0999978200000005
 21.6633671099999994 26.2110750400000008 19.5381684000000000
  7.9963275100000004 29.2763918399999987 18.3177365499999993
  6.1982648800000000 14.2379197499999997  1.7173132000000000
 22.8829619700000002 13.9418258900000005 30.2677872599999986
 20.7005044500000004 13.3783222500000001  9.4621248500000004
 24.9323050600000009 17.2510779499999991 33.8670997999999983
 34.3463635100000033  4.3315388500000003  0.1733993600000000
  9.3229652499999993 31.0770277800000017  6.6058991300000001
  5.3466355999999999 15.9044707499999998 11.4399358299999996
 16.0015131699999991 32.4318103900000025 26.4371845800000003
  4.7612887300000004 12.9796356399999997 28.7362725599999997
  5.5328506900000001 30.6215228199999991 15.9340577499999991
 18.7086552899999994 31.3694384100000008 21.1513095299999989
 30.0592839299999994 16.3850881699999995  4.1768753199999997
 25.7434620900000013  0.3673431900000000 13.9370071499999995
 19.2791876799999997 30.3073749799999987 21.0513432800000011
 29.9264585700000012 23.9891335699999999 20.3678931900000002
 23.1809275399999990 16.8492082799999991 34.6435525899999988
 29.1884113599999999  9.6297470199999999  7.1580853299999996
 10.9402195300000002 17.2696386400000002 30.8165520499999985
  3.7902707000000002  3.0796865699999998 30.2922057799999997
 11.1025123000000008 14.9242662799999994 22.1433305999999988
  7.9574050400000003  5.1065389300000001  5.5998752100000004
  2.1027036500000000 25.1403014099999993 13.0458477500000001
 21.5632173899999984 22.9946993100000014  1.9113743299999999
 29.4684271500000001 25.8551301199999983 22.1718974399999986
 33.0801929900000005  3.8035780099999998 16.7355626999999991
 14.6022864299999995  0.6280506500000000 20.6472717099999983
 28.6956503900000008 22.7961238699999988 24.4539158699999994
 26.9640588699999988  4.9375058000000003 34.6600395500000005
 26.2847325199999986 32.4994051799999966  7.5029285300000002
 31.7197819199999991 29.3746542599999998 24.8141115899999996
 25.7735372900000002 15.8411499199999994 32.2066438000000019
 22.0624228799999997 13.1412815599999995 15.5191732600000005
 10.7450527499999993 27.1015162099999998  5.1829032699999997
 29.0553269199999988 12.8795136100000001 25.9852918799999983
  4.8006285499999999  9.1641067899999999 21.1428908500000006
 28.5665888800000012 23.6593815099999993  8.2250709799999999
 23.7679220099999995 12.4651857100000001 27.3761572000000015
  1.0739844700000001 25.4570541500000012 16.7091153400000003
 25.1015312199999983 26.4352567200000017  7.3597678100000001
  5.6175224699999999 18.7001456200000007 28.3474316699999989
 15.2841107600000008 15.0494960700000000 26.8805195899999987
  0.8926913100000000 23.4628076900000018 29.4089085899999994
  5.5266866600000002 32.0227772400000035 11.8171163200000002
 20.2740145299999988 20.3621492400000008 31.6422714099999993
 21.6555729200000009  0.2140107500000000 26.8786290200000018
  4.1179060400000003 14.6467690200000007 13.2469830300000009
  7.0438320799999996 15.6857371400000005 10.1841957999999995
 15.7787452800000008 33.3719289599999982  7.0099489699999999
  6.2123045100000001  5.2019746299999996 34.5876061399999983
 33.8964769500000003  3.0880513999999999 30.8798594900000012