Na Cl 
 1.0000000000000000
    35.0000000000000000    0.0000000000000000    0.0000000000000000
     0.0000000000000000   35.0000000000000000    0.0000000000000000
     0.0000000000000000    0.0000000000000000   35.0000000000000000
 2500 2500
Cartesian
 27.8029732600000017 34.5716291199999972 10.3706562400000006
 34.6194330499999978  8.8112456300000002  5.6053024300000001
 23.3179416800000006  9.6458196800000007 32.2912857600000009
  9.6397667200000008  0.5593249100000000 20.5737421400000002
 17.8841607200000006 34.0891700099999966 21.6804263299999995
 32.9253779000000009 26.8264314699999993  1.8337226200000001
 19.3760775999999986 13.7361527399999996  3.5190867500000000
 30.2909446399999993 24.9066303600000012  5.7364607300000001
 22.6954160700000003 11.8578713800000006  5.2443088700000002
 11.0991143700000006 27.8151715300000006 29.5878720400000006
  3.3652946600000000  0.5073922100000000 22.7408062400000013
  4.7304757100000003 20.1053381500000015 20.4182124599999995
 28.8968635700000007  9.5860901399999996  8.4169100500000003
 28.0072835699999985  3.4148947299999999 29.1356574399999992
 32.9946567400000035  1.1958093900000000  7.9684572200000003
 15.8605218299999997  7.7903356700000002 32.1716764000000026
 29.3651720300000001  5.4463022099999998 11.0012231600000003
 27.5576650100000009  6.6757958400000001 25.1007054899999993
 12.5572257000000000 34.2923208200000005  6.0359933500000000
 16.9402136799999994 24.1713629200000000  3.0965463299999998
 33.6542399000000003 26.8099800100000003  5.3340055900000003
 13.6320095800000001  3.1850204700000000 15.6390808900000007
 31.0324369500000010 27.1678446099999995 34.9642881700000032
 29.7913196000000013 27.7084502800000010 20.9238558599999998
 22.2454661400000013  9.5493716000000006 21.2885584799999990
 26.8023029000000008 16.3048035899999988 19.8339209099999998
  8.7088117199999999 33.9986288999999999  4.9558583499999997
 28.1112221300000016  0.3104065300000000  2.0026115600000001
 22.8925171499999998 34.5357142900000014  1.7499918900000000
 12.1137644299999998  1.0388373399999999 29.7392552200000004
 27.6624910799999988 18.4875065599999999 24.5227037900000013
 28.0826044000000010  9.3321572899999996 10.5676395000000003
 20.3170871300000009  9.2834616099999998 32.1393573200000020
 11.1784788899999992 31.6946290200000007 26.6299533699999991
 24.6263095700000001 19.3848840200000012 21.7457480799999985
 10.7879134000000008 12.4604609600000007 17.9672711199999995
 30.9257027600000001 18.2863336300000014  3.4093271500000002
  5.5613951899999998 20.3690363599999991  7.3941553600000001
 23.5691435200000008 31.5951954599999993  0.4500248500000000
  3.5677234599999998  7.7281736900000002  2.4151260400000001
 26.0233437599999995 14.3386145500000008 14.0947671999999997
 10.7522891400000002  8.7235684199999994  2.0144706600000002
 12.2084240099999999 16.9823586300000002 32.5015302999999989
  8.2197385999999995  4.1466414800000004  7.6032896200000000
  3.4886640400000002  8.9765533299999998 18.9318361099999990
  2.3694310399999998 28.0275589799999985 29.1837778099999987
  1.7537336200000000  5.0009893400000003 16.6279041300000010
 25.1846889699999998 24.0675355700000004  8.0702845599999993
 12.2726058899999995 10.6872726599999996  0.9916093000000000
  5.9774584300000004 13.1438404700000007 23.5267158800000011
 18.5138349600000005 12.0240955799999991 33.9743503300000000
 16.9060266400000003  9.5898155999999997  1.0307598899999999
 33.9814105100000035 30.5664242000000002 34.8915938499999996
 33.0178319400000007  5.7013330599999996 27.3046811100000006
 24.7754136199999984  5.3766987300000002 31.1755745100000006
 17.8808595799999992 13.6069035100000004  1.2273001500000000
 12.2335656000000004 19.5369570099999983 22.6364583300000000
  0.9551157500000000 22.6303389000000017  3.1058232900000000
 14.5719900500000001 16.4368359200000000 33.9013338800000028
 14.7184523899999995 28.0293056400000005 23.5398236700000005
 28.8163466499999998 21.3380905299999988 19.2874877699999985
 29.8070068399999997 11.3639214000000006 33.4269127199999971
 21.1220780300000008 28.7653713000000018  4.5953871900000003
 24.6724463100000015 24.8050757399999995 13.9079289500000005
 20.5617940700000013 27.0729086099999989 14.3750340899999998
 31.1980027299999989  9.8319477800000001 10.5464111799999998
 13.5327524399999994 14.9703076100000008 25.9599775199999989
 34.3421732600000027  3.9059550700000001 22.3867930699999995
  4.8311932500000001 32.8649146200000004 25.6200457200000002
 26.1084622800000012  9.9254646999999991  7.2851962600000002
 12.2935924100000005 13.4076868499999993 12.9928920800000007
  6.5372352400000002  6.3126435200000000 11.5996911899999997
  6.0099025299999997 33.4317963599999999 33.2014386900000034
 11.5800342799999996 25.6361204899999997 16.2769987600000015
  7.5181253600000000  7.1329122500000004  7.8561281400000000
 17.9456537800000007 17.6031018000000010  0.3318980000000000
 13.2097057899999992 10.5251287399999995  5.8387197200000003
 26.3623487800000014  6.9959723800000004 16.3077835100000001
 34.9174405099999987 12.4226099300000001 11.8051112400000004
 28.5045800299999996 31.4766109500000013  2.4002514700000002
 21.0264914099999984 32.2411140900000035  6.4044766900000001
 15.0397729099999999  3.4633076200000001  2.8111029699999999
 31.2075924600000008 31.0065527799999998 12.1324960399999995
  0.8609193000000001 14.4706114199999991 27.5661238799999992
  8.8439848199999993 30.8529067899999987 19.8043886899999997
  2.3607472100000000 22.0784118800000009  1.8684356200000001
  7.7973916000000001 10.7605800699999996  8.0692555899999991
 29.9787560100000015 27.9521905900000007 22.4672081500000012
 26.3674484999999983 22.7070031700000001 31.6022785599999985
 14.4958319699999993 31.4478788199999997  9.4993372300000001
 20.3607951599999986  8.8842070300000007  6.8675650499999996
 28.1657594799999984  6.9195127799999998 26.2512523100000017
 29.7976211599999985 28.6188314199999994 26.6995922000000014
  5.0460970400000003  4.7528763400000003 11.5926748400000008
 28.0860837100000005 32.8089492000000007 30.0092650300000017
 15.7172777099999994 15.2864126299999992 18.7370002599999985
 17.7633135899999992 33.0114988500000024  4.2611849900000003
  7.7360653599999996 30.0505233400000016  9.1457640999999992
 27.8571577200000000  0.2497562100000000 32.6526863400000025
 28.6992712200000000 13.6513885300000002 13.8870470499999996
 19.5996911300000001 27.0087990100000006 21.8849682299999984
  5.6610882599999997 15.9103656800000000  5.5159400099999996
 26.4037534899999997  2.8848344699999999 10.4129871699999992
 11.0753349199999995 13.1539554499999998 18.5293088700000013
 27.0941895399999986 22.0435919799999986 11.6504611499999999
 19.3006291800000014  5.6746215199999996 33.3639092199999965
 12.2223392499999992  5.8558337500000004 33.9978544399999976
 26.9395888399999990 13.6696275899999993  5.4309043099999998
 32.2087057199999975 21.7169598499999985 16.9441564500000013
 20.4374271000000007  1.8371992300000000  7.8073983000000000
  3.9432291500000001 18.8523553700000015 31.5366291799999985
 31.1266239300000009  0.1684228600000000 30.6830656899999994
  0.2850979900000000 31.6419467499999989 16.1990282699999995
 27.0681173299999998  3.8479946400000000 28.2459290100000011
 24.3288452600000014 24.9022750899999998  2.5374073400000001
 16.2051365499999989 24.7300465100000011 12.8916953400000001
 20.7235030299999998 14.9153431899999998 12.1729949699999995
 16.5265148800000006  1.1356531000000001 11.9216836700000002
 27.7374727499999985 18.7044330800000012 30.4066917699999983
 10.2686140399999992 34.5962230700000006  3.7211704499999998
 31.7116821299999998 33.2415351400000034 20.4811032600000011
  0.9024253300000000 12.0624523299999993 13.6363385499999996
  5.9419622600000004 11.5597081900000003 34.0156110300000023
 10.3745057799999998 29.3186581000000004 28.6867122600000002
 12.5729573899999991 18.6947797499999986  8.1632395300000002
 34.5668024799999998 34.2492040400000022 16.3723498499999991
  0.0839223900000000 10.4836467500000001  8.6509151200000005
  5.9304470000000000 28.0227532600000018 18.4140426499999990
 14.8148495800000006  3.1768455499999999 18.2431770899999997
 13.0773117200000009 25.3779964800000002 17.9868047400000002
  9.2272578900000006 32.5232756300000005 23.6934562900000003
 20.9198371999999999 24.7037429000000017 25.8069403199999989
 17.2459088999999999 16.9908008899999992 34.3905918199999974
 12.6767257699999991 12.7299883800000000 32.9147609700000032
 23.3875602700000016 24.7253948699999988  4.7116274999999996
 18.3233376700000008 30.3362605099999989 16.5304200799999990
 31.7703249399999983  3.8512781100000000 13.4312630599999991
 24.2382892900000009  7.9281633200000003  3.6408766199999998
 12.2134134299999992 30.8394790699999994  4.1247699999999998
 25.0094084999999993 18.1286603399999997 13.3943174200000001
 33.2928217700000033  7.4554605199999999  3.9250179100000002
 27.7760845299999986  2.6527672099999999 30.0584376400000011
  2.1613664099999998 31.0853260499999990  6.0748516099999996
  5.0310841899999996 32.4320619000000008 30.6643631499999998
  0.9514206100000000 30.5262596299999984 24.8455270500000012
 28.7731217500000014 29.8572423499999999 15.6721675200000004
 27.1195302100000006 27.9441588799999998 27.4782650900000007
  2.2013777600000002  3.5559695100000002 20.1796175300000016
  8.8318001800000001  1.0656634400000000 25.6054313399999991
 25.4845154799999989 23.2517113500000008 16.5126290100000013
 12.7557870900000001 11.5136577199999994 30.0452933500000015
 26.2452673700000005 34.2087406699999974  1.3044540800000000
 13.9597612000000009 16.7065429899999991 16.8680021899999986
  0.5128418800000000  9.3335100600000001 33.3035161199999976
 12.1954656200000002  9.1906244600000004 11.8253495599999994
 18.6500145500000016 25.7944836399999993 17.8866180200000002
  5.3890771199999996 29.2192135800000017  2.3227075400000001
 12.7455941500000005 15.2008913900000007 16.3815146600000006
 14.1168089099999996 31.2072952000000008 26.0104725600000002
  8.0123680299999993 18.8694162600000013  3.2791461100000001
 22.6086132599999985 22.9630044899999994 29.2164770300000001
 26.3294050499999983 13.3106353199999994 26.8478946100000009
 12.5647388000000007 20.5650364400000001 11.5674090500000002
 23.4439187300000000 26.9421008099999995 20.8882721899999986
 19.1906416899999996 12.1148078199999993 18.5751090199999993
 26.8573250299999984 31.0617472100000001 29.7853528099999991
 32.4247199300000020 12.2678382300000006  0.5571475299999999
 18.9784612499999987 15.9982710299999997 12.9411448700000005
 11.8218161399999993 29.2637985299999990 16.6618758800000002
  1.1479883900000001  9.2407966100000003 15.0685833500000008
 32.6804215100000022  4.8443202000000003  8.4895596700000002
 24.0294006499999995 32.1366612599999968  0.8658748600000000
 27.7587939500000012 27.0498545099999994 11.9047577499999999
 23.2635854799999997  6.0810928100000003  4.9268548200000000
 30.6489433600000005 21.7910246799999996  1.7518228000000000
  7.8857178799999996 25.2603922899999986  1.4132213199999999
 22.0106916499999983 18.6945808500000012  4.8202841699999999
 24.5159750000000010 19.9918816600000007  3.5550000700000002
  3.8861341600000001  4.2567985699999999  4.0135452699999998
 10.6552838699999999 23.3559642099999998 18.6904704899999992
  5.7374705600000002  4.6676804399999998 14.7052386500000001
 15.9460210199999999  9.7752035599999996  1.8462235600000001
 19.4793431300000002 34.3200173999999976 16.5323928400000000
 29.9265035200000007 24.7446129900000003 12.7105826499999992
 21.7626790300000010 15.3464428500000007 12.6649799900000009
 25.3186676099999985  0.8465502000000000 17.9692046300000001
 28.4222749400000012 13.1748837999999999 20.2720921400000016
 23.0526664200000013 31.1645468000000001  7.5380349899999999
 26.7541431500000009 11.8839289200000007 23.1933755800000014
 16.0633200000000009 21.2193062999999995 17.8810628800000018
 17.0238180700000008 29.3102255700000001 26.9611827200000000
 26.5980534700000000 13.4846401100000008 11.3462747299999993
 16.8393319800000008  8.6525608300000005 33.5898142599999971
 29.0082747300000001 27.0733451699999996 21.7123335399999995
  9.1897648299999997 32.3775588499999998 24.6315907400000000
  3.1454987299999999 16.3970820599999989 30.7581247600000012
  1.8028844799999999 26.0793909500000005 11.3236665599999995
 21.8638607699999987  0.9078920500000000 33.9416795300000018
 27.8078028800000006 10.7429352900000001 26.5134499099999985
 26.5526586699999996 20.5342416599999993 18.9996313000000008
 21.8033312600000002 33.5885574599999970  7.8852562800000001
 17.5023472300000016 21.9499686400000016 13.1229593799999993
 22.5783090900000012  3.6408545999999999 11.8433435599999992
  6.0751667200000004 10.3271100100000002  2.7379205000000000
 26.2298392999999983 19.9091918899999989 13.7881440699999995
  2.3373234100000002 13.3944679299999994  0.8224999700000000
 33.7570331000000010  4.4552844000000000 14.9649754900000005
  6.3430797500000002 33.1414385300000021 18.1574423399999993
  7.1334358099999999 16.6556281499999983  1.1423746699999999
 19.8910585600000012 24.0212248099999996 34.7254177800000008
  5.0966848599999999 14.9825143199999999 21.1181125099999996
 32.1169107199999999 18.9184056200000015 21.6432454599999993
  3.0263808200000000  9.3823592199999997 14.3113304800000005
 10.5313569099999995  5.5156259299999997 21.1249848200000017
  7.6197987300000003  0.9572464500000000 23.4411045300000005
 14.6438295099999998 33.8425183700000005  6.2062221099999997
  7.9750350599999997 21.4141704500000003  2.9627105299999998
 24.2758857699999986  9.8121949700000002 28.5608666500000012
 32.4858646400000026 24.9269414299999994 32.1046871699999983
 23.4773082500000001 28.1197776799999986  4.1035063000000003
 17.6303871399999998  3.9166742700000001 27.5445306300000006
 30.9262419400000006 27.3482517999999999 22.0680844799999996
  3.2958051600000000 22.5972865700000014  7.5953377900000003
  9.8422172299999993  8.1449717199999991  7.5397451699999998
 20.4971494999999990 25.5915966899999994  2.9655892200000000
  2.6580700799999999 14.1839176800000004  4.1043836300000001
 32.3756581399999988 27.6864254099999982  0.7518121800000001
  0.7072923100000000 22.4618982000000003  7.1230859200000003
 17.7049840600000010 32.6671023199999979 25.9887542600000003
 27.9928145499999985  5.2340664900000000 13.9555398000000004
 15.7574924999999997 26.1764359499999983 32.3590948599999990
 29.3073231999999990 13.1809884000000004 17.8721147400000007
  6.6324629000000002 31.8040222499999992 10.2019894099999995
 34.8360151099999982  8.9058726099999994 21.0009778699999998
 23.4350467400000007 17.8305135499999992  7.4411860399999998
  9.0137336999999995 13.8223415799999998 17.0950031600000010
  0.7181765400000000 30.3931053599999998 26.9218078399999996
 29.8243741100000008 23.2556414499999988 12.5658550800000004
  4.3262914300000004 16.9800790299999989 29.1882048300000001
  6.1585957200000001 12.5182880799999996  9.8677195900000001
 16.7631279500000012 22.8914149999999985 16.0119504699999986
 32.8515031199999967 10.2129803399999997  9.5605956499999998
 34.9310586000000001 31.3019223000000011  6.4080654600000004
  5.3562311800000000  2.1774140700000002 20.7983287099999998
 12.5105533999999992 19.8710218199999993  2.2636690200000000
  0.4852765000000000  1.0421901000000000 16.0890356200000006
 33.4217439900000031  4.2512575699999999 15.8860513099999991
 16.8642996399999987  8.2841276799999992  1.3339376400000000
 19.4898918600000002  1.6125211600000000 11.6432023200000003
  2.3013851000000001  4.3793545700000003 33.8123089400000012
 23.4763861799999987 12.6225882499999997 12.8407593099999993
  4.6417757000000002 34.3241993500000007 16.8185498600000010
  9.3674140300000008  8.1275700999999998 30.0705956000000008
 31.5001979399999996 13.8267117400000004 20.5441481800000005
 10.4984761700000000 12.8890009800000005 10.4393869899999991
 34.7770569600000030 32.9962688999999969 28.2914432699999985
 19.2870987400000011 23.2684666399999998 18.1188171900000015
 22.9604848799999992 21.8693625800000007 23.3768752999999982
 20.1431693799999998 26.2478299100000001  7.2773681000000003
 20.7256727500000011 16.3818802999999988 20.2622697100000018
 32.9669899200000032 26.1995931599999992  1.5622076199999999
  6.0234132300000001 15.5062305800000004  3.2173802800000000
 34.5103074199999966 29.7367500800000002 20.5586201799999984
  8.7294322999999991 30.5686516700000013  2.3286398799999999
  7.4505253600000003 25.9797868899999997 17.2782303299999995
  0.2172128600000000 10.6965398300000007 16.7450057000000001
 33.3107633400000012 28.9994026500000004 17.9603883000000017
 20.2461344600000004  6.7819254700000000 23.8213195199999994
 34.9172183299999972  8.6884926300000007  7.4956323700000000
 14.0932543399999997 20.3256676300000017 13.4959373800000009
 26.2195105499999990 21.3138258299999990 31.4707644799999997
  9.1386201499999995 12.7887963300000003  6.2998910099999996
  7.2681513999999998  5.8206156399999998  2.0871211800000000
  8.2456068499999997 18.9143673499999991 23.7719929400000005
 10.8853797599999993  5.5776186100000000 13.0360238400000004
 31.4526138999999993 19.0818904399999987  4.3325957700000002
 17.9370270599999984 12.6137806200000000  4.8108936800000004
  6.6900777600000003 20.1368985599999988 25.8540674099999990
  4.3110270899999996  5.4323599400000004 21.6735838299999983
 22.9234949199999996 30.1790986200000013  0.1105638600000000
  3.2468239799999998  4.3706965300000000 28.2965079099999990
 34.4083734700000008 31.5329361699999993  4.0581546399999997
 25.4050626800000003 17.8884133799999994  0.5636046700000000
 22.5037106199999997  9.8644038799999993 31.0359743500000000
 16.6208978199999997 12.4296066799999991 24.3994007800000006
 20.7288574200000006 34.9066935900000033  6.7992034099999996
 34.2116680299999985 15.5045722500000007 10.3457227500000002
  0.5622825700000000  0.2830830200000000 32.7763077999999979
  6.4051982100000000 27.1663407600000006  9.6891460400000007
 25.4775780599999990 11.6545012499999991 17.2025610600000007
 23.4437521000000011 24.1415128299999999 26.4061630399999991
  8.3821474100000000  3.7516003400000000 18.1468734500000011
  4.5020893800000001 31.6162810199999988  4.8350686500000002
 27.9988553600000003  1.7619547700000000  3.1737385499999999
  1.0238804600000000 23.3588181800000001 31.6571137200000017
 26.1103318000000009  6.3466154699999997 22.5662776799999989
 11.4290345900000005  7.7843304800000004  1.2423097100000000
 19.4993215299999996 20.0969291199999986 19.0876797799999984
 31.6341272400000015 24.7765616800000004 24.6721034299999999
 19.0422852599999999  3.6883854899999999  5.6949021999999996
 24.2212694199999987  1.8751103899999999 14.9803337699999997
 19.4696905700000009 12.0894395299999999 12.2102427700000007
 12.5502395000000000 21.8752594100000017 17.4849284599999990
  9.1926521500000007 10.9046483900000002 14.4254609100000000
  3.7215561400000001  3.1940681299999998 27.7030094200000008
 34.4793443499999981 34.3404442200000020  9.8460198999999999
  2.0563944500000000 16.8214573099999996 23.2330722999999999
 18.2461553499999987 28.1328911700000006 14.5018910099999996
 28.2822868499999984  5.3950086099999996 23.9096268800000011
 14.0990060400000008 11.9944371600000004 25.5053006199999999
 22.5875338899999996 18.6820513999999989  4.2379274400000000
  1.8464091600000001 22.5987773899999986 32.6516154999999983
 10.7017133399999995 33.6960855700000010 30.1101007400000000
 30.4630693100000016 12.8058098000000005 12.2452922199999996
  6.6264183499999998  0.2131317100000000 12.1045961099999992
 21.9467834800000006 29.5899284000000016  2.9266978400000001
 14.0105881900000000 30.9557259500000015 32.8860523099999966
 30.8810950300000009  3.5642210400000001 18.8629590699999987
 34.7530749700000001 14.9310126499999996 30.5296161800000014
 11.2591315000000005 22.2230369699999990 17.5823958699999991
  2.3273408700000000 20.6180465499999990 27.5082937700000016
 16.8934084599999998  7.5159485500000001  5.5472186600000004
 27.1040289299999984 12.4141483299999997  9.5909032100000005
 19.3101844599999986 26.2701534499999987 32.4690493700000005
 22.3127169000000016 19.8328765500000017 26.1561046700000013
  5.6512039900000000 24.7854255999999999 33.6480988400000030
 28.5971918299999999 13.0030864400000006  2.8738328700000002
  0.5089871100000000 14.5463557399999992  5.6009997000000000
 21.0020157999999988  5.8795542300000001 12.6680173800000002
  6.3680394299999996 32.6387831600000027  5.0284990599999997
 23.9837772999999999  0.3450416600000000 24.1151218299999996
  2.8526332999999999 29.2078524600000016 21.3762417000000013
 30.4942122200000014 11.2248551299999999  6.1401181100000004
 16.9650209799999985 21.1075282000000009 29.2264332099999997
 18.6628930599999983 32.2437215599999973 15.2283096199999992
 22.1998584500000007 13.0209919299999992 23.8113096400000011
  6.6811542800000003 10.1599887800000008 28.9314352200000009
 30.6316706200000013 11.4880575900000004 19.7838734999999986
  7.5619100699999997  8.0224650200000003 13.5695983400000006
  4.2393668399999997 26.0384600500000012 23.3980177900000008
 25.4850259600000015 31.8312512500000011 12.8398141300000006
 23.7561635600000010 24.8410268199999997 23.1377978800000008
 26.9688917500000009 16.1635965599999984 26.5673502200000016
 22.4552134999999993 34.7733246800000018  5.2679192900000000
 22.9194758000000007 32.6297055499999971 27.4611001899999998
 28.7109586499999985  0.0820652300000000 14.2704034699999998
 22.6711757200000008 24.4503889399999998  2.6868641800000002
  8.1262868800000003  8.5035480900000007 14.1327896899999992
 19.7963920999999985  7.9621080500000003 14.1500118300000004
 29.2488285200000000 10.0609308899999998  9.0654301000000004
  7.6836690100000000 24.4250280900000014 31.4471807100000014
 32.7661226999999968 10.2241888000000003 22.9412254599999983
 13.1762867299999993  8.8511035299999996 10.4969615699999999
 22.4330697199999989 12.6027393399999994 29.2401652200000015
  4.4569266699999996  7.5665450099999996 15.9220357799999999
 26.6554366499999986 32.9237020500000028 33.6603068000000007
 23.7764188800000014 15.2721629500000002 24.2426267399999986
 10.8275450299999996 13.5492481399999996 12.2134514500000009
 31.4785412499999993 34.8428608299999993 18.9619923399999983
 19.2051825500000000 11.5030883100000008 27.4051813899999992
 33.8835975200000021 31.6234737999999993 20.7241031199999988
 25.0011852499999989 19.9205750700000017 30.1052276200000009
 18.5606628499999999 29.0605367299999990 30.4408937600000016
 25.1013486800000010 23.3673199700000005 34.5468156900000025
 13.3312220200000002 22.8484316300000003 28.5903661000000007
  3.2830701499999999 18.5599400000000010 16.9115072099999999
 31.7016033600000000  3.8475988900000000 21.5945325699999984
 24.3088360299999984  3.6071011999999998  4.5497895599999998
 28.3130770699999985 32.8863618600000009  1.0837131300000000
 13.9665781500000001 26.2789148300000015  4.7215217400000000
  9.6159185800000007 19.7435237100000016 29.4029831600000016
 10.9378987700000003 13.2646577800000003 24.1033820200000015
 15.5415683199999997  2.1387078000000002  0.2620633800000000
 29.4992822299999986 19.4364226799999997 12.9560494399999993
 17.3229605900000010 16.9986780000000017 26.7811020299999996
  9.9817551000000009  8.3580000699999992 17.9071220999999987
  0.0010988400000000 18.4681574600000005 14.3225040099999994
 23.3249698999999993 22.7690543800000000 24.4969748100000011
 15.6555499200000003 27.8274428900000004 25.8326592599999998
 29.5042268599999993 32.5408029299999981  3.2748255300000002
 19.9927417699999985 18.0110084599999993 31.0192355199999987
 15.2913717899999995 32.0857197500000026 19.6918355100000007
  0.6794389600000000  9.3306340999999993 19.9673508599999998
 11.2659371900000007 31.6064019999999992 13.7983317599999999
 33.5618865599999978 14.6273742500000008  2.2789773000000002
 12.7714917900000007 30.4625002900000013  3.2423387500000000
 33.9873817399999965 25.9249355100000010  5.3911771899999996
 29.5150041200000004  3.6742539399999998 13.1859220300000004
 30.7915970100000003  4.3709941099999998 33.2980665799999969
 25.6049531799999990 17.4481647399999993 21.3047122999999985
 18.2996394799999997 17.0408241400000016  0.1312657800000000
  1.1839960700000001 19.4219998499999988 15.5515187699999995
 29.3760488700000018 13.2534222800000006 10.2683140799999997
 29.5546716499999995  5.3664933200000000 34.6532571400000009
 17.2928033499999998  0.1459432700000000  2.8685724300000000
 17.0968023699999989 30.9573499000000005 25.1797324600000003
 10.7634655099999996 21.5648440000000008 15.3330289099999995
 32.2168261699999974 18.1974132299999987 13.9242025799999993
 14.0727380699999998 25.5087515700000012 10.5876999099999995
  7.4723790100000000  8.2739963299999992  6.0563260300000001
  8.6716619300000009  4.6220028199999996 17.0014557099999983
  3.4660598999999999 14.0687410800000006 28.3313458300000001
 24.9293066900000007  1.8574776099999999 33.6261353599999993
  9.4570158000000006  9.0645903499999996 28.5700642699999996
 12.0701579999999993  3.1454535099999998 15.6372198699999991
 34.7542739399999974  0.0821525600000000 15.7380825000000009
 14.9525862099999998  8.1164601699999999 18.3461037900000008
 27.9663187800000017 14.9197602000000007 16.4096684000000010
 32.2967464199999981 31.4170945900000014 17.1087876100000003
 22.3934201900000005 11.2131847899999997 19.9967865499999995
 15.9915562199999997  5.0854479899999996  1.1244368499999999
 33.4101186999999982 18.8650489800000010 34.8782115200000007
 18.1010885899999998  4.9958935999999996  0.9837105300000000
 13.2229046599999993 22.3585956500000016 20.9171422999999983
 14.4105874000000007 33.7425087800000014  5.3450356899999996
 24.0148269100000000 32.1958782399999990 16.1256485299999994
 18.7748011000000012 23.0820647900000004  0.2628823300000000
  8.2633613199999996  2.3136743100000001  0.9240874000000000
 26.1369717199999982 34.0837700299999966  0.9229135100000000
  6.4073991899999996 29.1582620400000003 27.9101388300000011
 15.7033320500000002 25.9017973300000008  1.5077324800000000
  0.4598707900000000 29.0483968200000007  1.4052949100000001
 28.7915646000000010 24.8262318499999992 19.4787850800000015
 24.9408964799999993 21.6470820699999997 32.5083849900000033
 18.4265159300000008 14.4532679099999992 16.0737834500000005
 22.0783714099999990  1.1882850000000000 21.5059130200000013
  4.8800547099999996 14.0795407899999994 34.8419887000000017
  4.3041027500000002 29.0548360300000006  4.6292290600000001
 33.4528539399999971  2.1161568300000000  6.2477877099999999
  6.5680642499999999 34.4559333300000006 25.8715297699999986
 17.8008134899999995 33.2722632600000026 11.9285362399999997
  2.9086401000000000 25.5141234600000004 30.8729696099999984
  7.0002211599999997 17.7170245100000017 25.0309495599999998
 30.1693020199999999 10.4590551999999999 15.3406675900000007
 20.6001179199999989  6.1818464400000002 18.2931705700000009
 13.3178024199999996  7.3052265500000004 33.9426747199999994
  9.5340844699999998  9.3576212200000004 18.5398854700000015
 29.8551015100000008 14.6910218300000004 22.0038761100000002
  9.1457663799999995 27.8955069299999998 14.7849181200000004
 25.1187650900000001  1.0849176400000000 34.2108518499999974
  1.7870600500000000  5.1183105800000002 28.4459116700000010
 25.4373568299999988  0.6562783700000000  5.0705453800000004
 30.6561631400000003  3.1339494399999999 32.2881760599999978
 27.3749988900000005 16.6062822600000004 11.7859374300000006
 21.2504213100000001 15.8308782400000005 34.5705558200000027
 27.3317359999999994 24.4869197499999984 21.6601715199999987
  7.5027333900000004 28.4401027500000012 32.8068439199999986
 29.6258191500000017 11.1425041000000000 22.0664761600000006
 11.2648170899999993 12.7807751100000004 11.4873543100000006
  7.9638254000000002  8.0135442599999998  3.6384336899999998
  6.1551063399999997 23.8722117999999988 15.2637365299999992
 22.6198182999999986  1.2861104900000000 20.6589623099999997
 15.1794681400000009  6.3210617899999999 13.0855381699999995
 23.6400445599999998 33.2289437800000016 18.8581133399999992
 23.3108590299999996 30.6076824000000016 28.3181627800000015
 13.3618189300000001 12.0907850799999999 34.8247715400000004
 29.9352128200000003 31.1219016300000000 25.8006252300000014
 16.1081717299999987  5.0423190000000000 11.2553511600000000
 28.6868886600000010 15.5376251900000000  5.8666173199999996
  5.2373136200000001 33.5300257399999992  4.1425719599999997
  9.2069268599999994  5.8197675200000001 22.8327200499999989
  9.5259280600000000 12.2728938700000008 15.5272168100000005
  5.9328638500000004 33.6427836700000000  9.2651739099999997
  4.7778401300000004 11.1590480400000001 20.1204318600000001
 29.0982324500000011 33.9928420900000035 12.6970588499999995
  4.4680107800000002 18.8571429100000003  7.0009402800000000
 29.8033256900000012 19.4948680000000003 15.2463944199999997
 11.1510352400000006 25.4492393899999989 25.3663603199999983
 32.4178895599999990  2.4697539000000002 34.1538179300000024
 23.2178924500000008  8.1184527000000006 16.8345508700000011
 33.2964492799999974 33.4230335800000020 25.9254089400000005
 13.3480902900000000 26.3534535100000014 32.4932231800000011
  8.6020459599999999 24.5865292199999992 15.7965501600000007
 17.6184795200000011 13.7852988700000001 24.5180506999999999
 19.8781574200000009 17.1917818800000006 17.2779781800000016
 30.9793513000000011  9.9573271299999995 17.7971169200000006
  6.1440787700000001 13.5318525199999993 34.8453794300000013
 26.2921235600000003 16.7207120300000014 10.0070050800000008
 12.7344598100000006  3.0660630300000000 11.3214031500000001
 18.8228146800000005 25.0463986699999985  9.8224852899999995
 26.5103224600000011  8.9895887699999992 28.0184039399999989
 15.3149711300000000  8.7198135899999993  8.9070117199999999
  5.1459988799999996  3.8031583100000002  9.6817734800000004
  6.5668998199999997 14.8852361000000002 31.1631210900000006
 18.5760793600000014  8.1658741599999995  8.8469909999999992
 11.3777162100000009 20.2763713500000016 24.9733215199999989
  6.6148220699999998 15.3145059200000002  0.9009576500000001