Na Cl 
 1.0000000000000000
    35.0000000000000000    0.0000000000000000    0.0000000000000000
     0.0000000000000000   35.0000000000000000    0.0000000000000000
     0.0000000000000000    0.0000000000000000   35.0000000000000000
 2500 2500
Cartesian
  8.2761549399999996  7.3360477099999999 26.9539336799999987
  9.7634370599999993 14.0867467499999997 15.9526268200000008
 15.7989039200000008 22.1781542899999984 33.2392035399999983
 16.2939636599999993 12.6472362599999997  7.0998758600000000
 12.6135392599999996  0.7543691000000000  8.6814163299999993
 28.5643250399999999 20.6109395100000015 13.0603677999999999
 20.6016982999999989 32.7433306200000018 12.1577713200000002
  5.6625074199999998  4.7622042899999997 28.3675298299999987
  3.0738081199999998  1.4931376800000000  0.1649054300000000
  6.5655680600000004 27.5024461299999992 23.6120546800000000
 17.8030273399999999  0.4805836500000000 27.1693711899999997
 25.6215527799999983 16.4375672199999983 11.1922554800000000
 18.2378418199999999 28.4075468300000011 10.6395028499999995
  3.1243405900000001 10.7922594800000002 15.5050218100000006
 17.9016126900000003 12.4044675000000009 21.8853429900000016
 11.9596719799999995  1.2068854200000001 19.1231893500000005
 33.4434241599999993 18.6298314100000013  1.5765521499999999
  2.1120181699999998  6.6894439099999996  9.4837621199999997
  3.5899137600000000 30.6805350499999996 27.7525377199999994
 26.9015269500000009  3.9634529199999999  8.7531767100000000
  9.6409334599999994 20.1686452699999990 34.4211353099999968
  1.0211598700000000 12.6339601500000001 28.9682882100000008
 20.0198863200000012 19.2293646000000003 32.9307484500000029
 12.0892394900000006  8.8481127999999991 30.2318310799999992
 11.3848976499999992  0.9747554700000000  2.7151322499999999
 28.2277936999999994 34.5287813300000010 25.2278366799999993
 14.2510847799999993 12.9818422000000009 30.8218754799999992
 23.2611675499999997  0.4429834900000000 25.2234329499999994
 10.2376585400000000  4.3270174499999996 29.1822495999999987
 11.0690767200000000 12.9724832200000009 13.5254712500000007
 32.5952412800000033  8.2201239400000006 10.6230011700000002
  5.7806670300000000 30.6708070399999997  4.2539706500000003
 26.4846308599999993 32.1909134699999981  2.6826995500000002
  8.1313099300000005 22.9260454500000002  3.0458448599999999
 21.5145373699999993  9.8296570600000006  7.0462702799999999
 21.6646065900000018 12.0429134100000006  0.2457584700000000
  0.4626801400000000  6.2650390900000001 16.5119183999999990
  0.8124736800000000  5.2451286599999998 24.8774374499999986
  5.0911975700000003 27.7575963899999998  6.9225458900000003
  7.2288563300000002 10.3883368399999991 16.7773213199999987
 16.4393848200000008  6.7406878199999998 30.7401674000000007
 14.9935110300000005 30.9399356899999987 12.4991143900000008
  2.6154783199999998 33.3441533299999975 30.1850232900000002
 29.6864773799999995 15.6252819499999998  9.1136758199999992
 13.5494871000000003 16.2297093600000011 17.7252826799999994
 23.8260516600000010  9.4501914899999999 34.3684053500000033
 24.7887362899999992 19.2908841799999990 16.8903528300000012
 26.1600569699999994  2.0775130800000001 21.7622907300000001
  8.8202291800000001 16.5918921099999999 14.9306222300000009
 23.9677925300000005 11.6891075600000001  3.8307755999999999
 18.8455379500000006 21.9563135699999989 14.7622494199999998
 29.1259441400000014  9.7431681399999999 23.4268849800000005
 20.6559394699999999 34.3747094900000008 25.7423972499999998
 17.4705889499999998 13.1884154700000007  2.6987912399999998
 33.5844523299999977  8.8903719300000006  5.4811024599999998
  0.8891205000000000 33.4482124900000031 29.1072908199999993
 11.2367379900000000 30.8554045899999991 26.7849942699999986
  5.3986582199999997 15.2486394300000008 13.8828223400000006
 18.5950342900000010 11.7412480200000005  5.1554070200000002
 21.9257140799999988 25.4766161500000017 30.4875702699999991
  4.5935937200000003 29.5296938199999985  5.5639985599999999
 29.1238407200000005  9.3909494799999997 18.6878860700000011
 32.3012385600000016  1.9165526900000001 11.5011360499999995
 29.5935978499999983 29.5990745799999999 16.6464904500000017
 22.5650219800000009 25.3243689799999991 26.6694457299999996
 23.3744253600000000 13.9670754400000003 34.6368510900000004
 21.5562355900000000 10.6515971000000000 31.3924073999999997
 22.1911603600000014  6.8321622700000004 28.1512055600000011
  7.3118200299999998  4.7592893500000004 14.3761409300000000
 14.8006563500000006  9.6313410400000006 33.9488429999999966
  8.2043239299999993 25.0722573400000002 24.4291444800000015
 30.6313457900000010  6.0287737100000003  0.5997542300000001
  0.0694129200000000 11.6229418199999994 11.7831414900000002
  9.2589436799999998  5.0664196300000004 31.3147662999999987
 12.2771346300000008 16.8016877300000012  5.9656610800000003
 24.8658275599999996 19.9638461400000011 22.3620994400000015
  9.8053664400000002 18.7937356199999996 26.3144871400000007
  7.5854219199999999 18.1861406000000017 34.4651382200000000
  5.5779927499999999 19.3241984799999997 16.8038754099999998
  7.7340612599999998 31.3675909799999992 25.1015982400000013
 27.5616277899999993  3.2782373699999998  7.3354927800000000
 17.6271320399999993 19.2082400299999989 27.8902071000000014
 30.7106616599999995  9.0905712800000007 10.2314193099999997
  4.4643914999999996 28.0279009300000013 34.9309546799999993
 29.5553897300000017 17.4352634299999991 14.4725301300000009
 24.8139740400000015 23.4616278099999995  9.5785324299999992
 21.3944673899999991 21.8134526899999983 28.6993499999999990
 14.9755319500000006  8.7654229899999994  5.4641533100000004
 31.0246191399999987  0.7738660000000001 21.3658231100000009
 30.3889830100000005 27.6373869600000006 16.5626569799999999
 13.5758986999999998  5.1294776799999999  6.1313250899999998
  9.1808642000000003 22.7846890100000010  7.2682227199999998
  7.0193023600000002 23.4147531800000017 26.7567542399999994
 20.7685727399999998  2.4020749900000000 16.6743577700000003
  0.9310380200000000  2.9560593900000001 17.4901318400000001
 26.6458327399999995 11.5107841099999995 16.7485729899999995
 23.2661911900000007 14.8753420700000003  4.8741011800000003
 19.0185097700000014 24.0937326799999987 28.3652271899999988
 34.3734295599999982  4.2306821799999996 20.0753428800000009
  6.2877237600000004 12.7731838100000008 23.9003565000000009
 33.2916468199999969 22.7080829999999985 14.7510419000000006
 15.7612018599999999 18.5196499400000008  4.7565078099999996
  2.6268111699999999 13.8153629000000002  4.8042202300000003
 34.5293233399999977 34.3374174400000030 28.9749718999999999
 27.3526643299999996 26.2294291000000008 13.0148258200000004
 25.1775019299999983  8.2749219699999994 21.6135045800000007
 28.1715550300000004 34.3254088899999985  2.1471918200000002
  2.8529154399999999 33.9497321999999997 23.1490108200000009
  5.4248503599999998  0.4600355700000000 31.8177575799999985
 31.0516293700000006 34.7348233100000030 23.1754129700000000
 29.1657433799999986 13.6489786700000000  8.3845295699999998
  8.7884488399999992  7.4597212199999996  5.5344965699999999
 23.2839032300000000 32.5616276599999992  3.2760068599999999
  4.8472231600000004 22.2796152200000002 23.4929524299999990
 11.0515444299999999 33.3072935599999980  5.6828556499999996
 31.7549750099999990 25.8649158300000011 11.6404255899999995
 25.6328625999999993 31.5217236900000017 25.6101397900000016
 34.6194786300000032  9.5774080500000007  2.4970727099999999
  3.3009579599999999  4.2004843200000002  2.5399922199999998
 24.6493123099999991 20.9920292300000000 13.0351999599999999
 17.6058100899999985 10.8502181400000008  9.6163021999999998
 26.1911215000000013 34.1789891399999988 26.2704827099999996
  3.0028402800000000 33.7365792800000008 10.6880409899999993
 13.9048837800000005  4.3817610100000000  4.2573026100000000
 12.4848856200000000  8.4725479099999994 18.1127613399999987
 26.1797657500000014 18.3229178600000004 23.2805538299999988
 11.2682753699999996  0.9042064500000000  6.9978451699999997
 12.7837188699999995 25.9630389299999997 15.7953074699999991
 31.7326783299999988  1.1246595500000001  2.1530015400000000
 30.4968505699999994 20.5674980800000000 17.9401796599999983
 30.5995135900000008 31.0249800799999988  6.8401630700000000
 22.6207907599999984 17.6302695999999983  1.9411421499999999
  4.7760475299999996 16.0308134699999982 34.8819516900000011
 10.9620169000000001 33.6179922199999979 12.5952617100000008
  8.5635058900000001  6.8434559500000001  7.9641783400000001
 13.9453451800000003 19.4165120999999985 28.3189310100000000
 26.2734498800000011 17.8721521500000016  7.2611160100000003
 27.5768548500000001 14.1994947299999996 20.9078618600000006
 33.4342177400000011  3.8976196700000001 22.2938441699999998
 17.6388959900000017  6.9249848600000004 13.2206001499999992
 18.6267159599999985 19.2150895199999994  3.0096030200000001
  7.3978834800000000 16.2276427900000009 17.9924037599999984
 33.3299174500000035  0.9226624900000000  2.1884383199999999
 31.0828077100000009 33.7491031500000034 11.1767160800000003
  2.0671255500000001 22.1791586000000009 15.1186080500000006
 33.4454746099999980 18.0918005700000002 23.8921497800000004
  0.3613194000000000 17.6950944099999994  6.4517676799999997
  4.8594600300000002 17.9447815400000010  2.9432947500000002
 12.9547933900000007 31.2125425999999990  9.2035189699999993
 18.5433058600000003 17.3416620500000001 16.3140025400000006
 34.4406759600000001 14.4407757700000001 16.1184362900000018
  2.5587026599999998 24.1155683900000000 10.3578475000000001
 29.3428591700000005 15.4340404600000003 14.9179721900000004
 21.3586800900000000 15.3362352200000007 16.1054090999999993
 28.6107398300000000 30.7042563100000017  6.4358489600000004
 17.3134616299999990 32.3495497700000030  8.8829931000000002
 21.4649638899999999 16.6481601200000000 15.6270559299999992
  3.9290904100000001 26.2225751900000006  2.8211967800000002
 25.8543595699999997  9.2213694299999993  3.5560188500000001
 21.0087822200000005 14.6027650100000006  8.6715233900000008
  2.2936579699999999 14.5094831099999997 15.8827068800000006
 30.6544938500000015 10.0782157100000003 19.5713740799999982
  6.0841538000000002 21.3728670399999992  8.7762794100000008
 12.9280479600000007  1.7020110399999999 10.6994677800000009
 30.9549850900000010 20.4343379499999998 19.9178482000000017
 19.2746353500000005 23.7963195200000008 34.7421884000000034
  6.9603605899999996 12.7804420099999998  5.8889175800000002
 30.0378329499999985  5.8584184900000000  7.4395648899999998
 16.7671682900000008 20.7974557299999994 32.8384198199999986
  0.3219008800000000 20.1881233800000004 11.7897089499999996
 14.6383773200000000 12.2076304199999992  3.6445036100000001
  3.1722209499999998 10.5175473799999999 18.4188149000000010
 25.0219470500000014 18.8641399800000009 19.6007082799999992
  9.1040547800000002 26.8486761700000010 25.7004386999999994
 12.2732780500000001 21.9841279699999994 27.2388377300000002
  3.1457010200000002 19.7970133900000000 18.4040499199999985
 21.8669524399999986 17.8697011299999993  1.0669431500000000
 12.1135854100000007 33.0300679500000030  1.3519814600000000
  7.7524264199999999 25.0307899099999993 27.4859530599999999
 26.4130124299999984 18.4998998000000014 22.8158866399999987
  6.6068273099999999 20.9465461200000007 18.6006871199999999
  1.7484010800000001 20.3769695800000008  0.7277821900000000
 16.8353330499999991 11.4425582499999994 25.0765334200000005
 26.2972063799999987 32.1476847400000025 11.1374794799999997
  7.6176822000000000  0.3847937600000000 27.2287472699999995
  8.5553620299999995  9.9696492499999998 14.8949001299999999
 18.5865406899999996  8.9893292799999998 23.6572770599999984
  7.8555951700000000  8.9881002399999996  3.0007493599999999
 33.5944595100000001  2.0809647800000000  9.7750571999999991
 34.3863957000000013 12.1525297299999995 22.5672515000000011
 27.7959293000000009 21.1837848700000002 15.8723500699999995
 31.5877064400000016 14.5821673199999999 12.4860883999999999
 28.6877857899999995 30.6157125500000014 23.2808092400000000
 15.5609215200000008 12.4079361600000002 10.1829893100000000
 30.5013268999999987 25.8012509399999992 26.6246206299999990
  4.9990027299999999 18.2388910700000011 11.0421568299999997
 15.5298806700000007 15.7044701000000000 10.0290133499999996
 32.6273760400000015 23.3090227299999988 34.7450604699999985
 20.2313321899999998  3.0001951999999998 24.2808061700000017
 22.5092518300000002 32.9954588399999977 14.6766521799999996
 25.4931559400000012 28.4719495500000015  8.0560725000000009
 18.4104464800000009 24.3740303000000011 14.3272855000000003
 33.6873816700000006 23.8237545100000006  5.8421249599999996
 13.5941609999999997 32.0639490300000034  3.7913459100000000
 21.1506557999999991 19.0719615299999994 12.4573807999999993
  1.1991255400000000 28.7030067399999993  6.4342488099999997
 25.4197089399999996 19.0481534100000012 32.3143342999999987
 12.0166353400000006 13.5902406800000009  1.1750767200000001
  9.5143925700000000 28.3960005799999990 26.5818204300000005
 20.6560381100000008  1.0324910300000001 28.0766817400000015
 14.7899363000000008  4.4593594899999998 13.4550198900000009
  3.5193003500000000 33.8809784899999968 22.6054295100000004
  4.4538048100000003 25.0974306700000014 27.5173447200000005
 29.0126694200000017 30.9350181100000015 34.8494461900000019
 24.6421933499999994  6.3435916800000003  6.7453575800000003
  4.2248375300000003 26.8443909199999986 23.6781581999999986
  8.8048237399999998  2.6725483500000000 12.5200602100000005
  4.6519069699999998 29.6004413399999997  4.6176668699999999
 14.1270009800000000 27.5055436200000010  5.6716542499999996
 18.4929538200000003 11.0748670100000002  5.2899022300000000
  7.3867158000000002  3.5323681400000000  8.5112833200000004
  4.1388008500000000 15.8258189199999997 19.5385799599999999
 14.9134291799999996 15.0043085400000002  2.4135989699999998
  0.3578614700000000 29.5776893799999989  7.2253736899999996
 21.8556646599999986  3.1558884500000000 16.0171937799999995
 15.9757948699999996 20.1844493400000005 20.0400859500000017
  8.7245060900000002 17.7738043300000008 34.3293848499999967
 33.9712369900000013 34.5801739999999995 13.9843364900000005
  9.7434154500000005 27.5833914299999989 19.0598444299999983
 18.8052740500000013 10.2409604800000000 24.8227061700000000
 30.2226824500000006 32.6240165999999974  1.8469339300000001
 31.4185477000000013  6.5312076799999996 10.0074545900000000
 20.2892540600000011 31.4929576299999994 32.1389180199999984
  3.7951603899999999 15.2606726399999992  6.1250477999999999
  8.6783543000000005 12.1007817600000003 27.8389580199999997
  9.3674228100000008  8.2752145499999994 26.5309689199999994
  5.9946011500000003 21.2614504699999998 26.1980819599999997
 11.1635262500000003 25.3856858599999988  7.2222707100000001
  4.7037530600000004 25.9777508300000015 18.0581351199999993
 18.0769577999999989 19.4297210500000013  5.3216822900000000
 16.5142299900000005  4.6635098499999996 14.6100059200000008
 25.3694522599999992 14.3840814100000003  8.2561788899999993
 21.5985808900000009 22.3490989800000008  1.3066371999999999
 15.6514629599999999 29.1379826000000008  2.0735967799999999
 25.9410773799999994 31.6874543499999994 11.0452472700000008
 32.4708716100000032 17.9392172700000003 14.4246388499999991
 24.9051577699999989 15.9867027700000008 28.5133925899999987
  4.5892013100000000 25.7063700900000001  6.9620478099999996
  6.1374909600000001  7.8105630699999997 22.1335825499999999
 19.1219127700000016 11.9878632799999991 20.0182152699999989
 26.1440471899999984 13.0011072900000002  4.6102765000000003
 29.9171989099999998  8.3620156399999992 15.3967999800000008
 19.0172389700000011  2.7354144499999999 19.1106287299999984
 32.3370528700000008  8.8476604499999993 22.6291003199999992
 17.2890506700000017  7.0746421599999998  8.5107285200000007
 29.8141905899999990 27.1012025700000017 34.9115305199999995
 18.0935009700000009 17.4708023700000012 16.7754361600000017
 19.7555419599999986 21.3937473699999998  9.7120857500000000
 26.0251893999999986 10.3581943200000008  0.1719389900000000
 19.7786494899999994 24.7619430600000001 23.9769366700000006
 25.3746598100000007 31.9073862599999991 32.4408963799999981
  4.1453798400000004 21.3989160699999985 26.5823583499999998
 29.6968642199999984 15.1969093100000006 19.4547483800000016
  5.9560809700000004  3.8528370999999999  4.6330864399999996
 28.2838359200000014 31.4302868500000017 28.8310418199999994
 23.3198732500000006  7.1097950200000000  4.3249483199999998
 29.4063647800000005 32.7727966699999982 17.3937087499999983
 16.0630292899999993 16.3333431100000013  9.4976140400000002
 26.3991983200000000 31.3261164200000017 28.0387024899999986
  6.4728247699999999  8.7659604800000004 14.4978574200000008
 30.4896502100000006  4.5510894500000001 15.1603477299999998
 34.9642745599999998 29.5625939500000001 33.5165918000000005
 23.3583147099999984 23.1953606699999995 14.4268582300000006
 27.2063380399999986 16.9233940300000008 21.4834531099999992
 12.3964603400000009 27.3089278499999999 26.1504142600000016
 15.0123846600000004 33.1489819999999966  4.9404763699999998
 14.5863273899999992 12.4043669300000001 20.1949646300000012
 21.7704998699999983  6.7913711200000000  7.5744458600000000
  8.7116516900000001 11.7299723399999998 25.6451190699999998
 27.5161453700000003  8.8552292900000005  9.8386323400000002
 17.8937071100000011 19.5354139499999988 31.7022576399999991
 14.8442346799999996  7.0522078300000004 16.4569192099999988
 21.4412135399999997  2.4758964600000000 32.3918070100000008
 19.1004894299999997  1.9257668800000001 26.3640090200000010
 34.8996788899999970 28.9030508099999999  8.5749019600000000
 23.3772125399999986 25.8111825300000000 18.5447589599999993
  6.7638081899999998 34.3242143499999983 17.0705589499999988
  9.8841922400000009 13.6189447799999996 28.6048435300000001
  1.6052426099999999 29.3125114999999994 30.3807902900000002
 29.9423593299999986 11.2332689099999996  7.5506362800000000
 28.5439521300000010 28.2034494900000006 10.3755880900000008
 12.5090577199999995 29.7331150700000002 29.4650425799999987
  3.9706521700000001 24.7509585799999989 14.3608296099999997
  2.4632174800000000 29.2962074600000015  1.3587061100000000
 15.7735727400000005 16.4370105399999993  1.8361440800000000
 25.0736282000000017 12.4690755499999995 22.7527936400000002
 31.2027038400000016 18.8433716999999987 20.5481220399999991
  7.2871852900000000 10.7231460700000003  8.9159615700000003
 15.5661159500000004 29.7107330599999990  3.2905258599999998
  3.8681730000000001 17.3836010799999983 21.1834276999999993
  9.8693291900000002  8.8157559299999999 11.4099106700000004
  1.3686498199999999  7.8975097200000004 13.4458192499999996
 23.8840573300000010  4.3514655900000001 20.0822493299999998
 17.3644803000000003 14.8203402400000002 25.4584655200000007
  5.4300188000000000 17.3259253999999991 31.8282710400000006
 32.7513639299999966  7.1735588300000002 26.0031914999999998
 25.6394930800000012  2.9601433600000000 16.1294642300000000
 12.9053621599999992  5.4218449399999997 19.9478265999999991
 33.1216138300000011 34.9636238000000006 18.6251255200000010
 27.4845949000000012  3.5864673200000001  7.7562456800000001
 19.2210661700000003 33.4590567400000012  1.3665650400000000
  7.8586588800000001 25.4798575900000017 14.9664571100000003
 31.2445910100000006 22.8411741100000008 11.6133097799999998
 24.8974325800000003 26.1494281400000013 33.4386781400000004
  8.8634759200000008  8.4397970000000004 27.6682063900000017
  9.5448801099999994 15.8000572899999998  6.5628578600000003
 16.9520769999999992 13.5582158199999991 22.9332402000000002
 18.9680239999999998 15.5794000599999993  7.9768168700000004
 16.3610680500000001 20.4706394200000013  0.0367860700000000
 23.2634881799999995  4.4457729500000003 30.1060222999999993
 31.9168707100000013 16.8459592799999989 15.0375655199999994
  1.3637346200000000 30.2878342700000012  7.6306316799999996
  8.0266920899999992 14.6139740099999997 22.0611926599999997
 27.4650314000000009 24.7828114799999994 24.7125053500000007
 33.0774916000000019 28.4014011900000014 12.3497423299999998
 12.1192750500000006 23.6557389700000016 17.0049409800000006
 27.0431075999999990  3.5094327200000000  8.0357137200000004
 26.2404476399999993 23.2034317899999998 10.0781469300000008
 18.4154193399999997  2.9528450500000001 33.4667788300000026
 26.1517943200000005  3.2070821800000000  1.4301903800000000
 27.2096528999999983  2.6363036399999999 33.3551958799999966
  5.7771177399999996  6.0177901000000000 25.9981650799999997
 11.1605676000000003 10.6596356799999992 26.4969459399999998
 29.1703619799999991 21.2738047399999992 23.8363151000000002
  6.9479483999999996 14.1686867999999997 28.1190283100000009
 26.5088041700000012 18.4717509299999989  4.7178520800000001
 17.9399808400000005 27.2579278400000007  8.9932655300000004
 19.8137720699999988 20.0672140600000013  9.6667479099999998
 34.0321515700000035  8.3714855099999994 34.5569757900000027
  9.0920336600000002 34.8097015199999973 21.6534767600000002
 34.9839617100000027 10.4445030200000009 15.7622845900000002
  1.7171715500000000 20.5022978400000007  7.1197395600000002
 31.4628553699999998 16.2101253199999995  3.5762100299999999
 10.3620316399999997 29.6657218500000006 16.7871773600000012
  7.0898903899999999 19.7878117499999995  3.7520975900000000
 26.5042618599999997 12.1291580600000000 14.7595869799999999
 19.3784431099999992 18.4933259399999983 17.3290752200000000
 14.7671631899999998  6.7117882900000003  0.0257908000000000
 13.4660441399999993 13.8037793499999992 20.1195282400000011
 13.9111237699999997  4.2572613400000003 11.7913127699999993
  6.5937626600000003 11.3691084100000008 15.6050746900000004
 19.4903383999999988  9.1174614399999996  7.1743864500000001
  4.9129975799999999  7.7503599300000001 25.2992805899999986
 25.0089317800000011 10.1164148100000002 31.5837058500000012
 17.3442246000000004 24.3829038900000015 23.4657172100000011
  8.3090811500000008  0.7269176300000000  2.3045437000000000
 22.4658911799999998  4.2331066200000000 25.8230213699999993
  7.5201796300000003  6.6589793700000000 22.4662106600000016
  9.6025437799999995  4.9533327500000004 20.6635779699999986
 22.7549880900000012 33.0847820299999995 10.9315078900000007
 10.8531790299999997 24.3798798199999993  7.6401404099999999
 27.8399001499999983 25.2018113600000007 31.8435636899999999
  9.7748871299999998 31.5280099900000010 26.2638551500000013
 31.6134528199999991 27.3014975600000014  6.2695010099999999
 21.5035233999999988 34.7177495099999973 16.2159490800000015
 31.4562667299999994 10.4748657999999999  1.0694613100000001
 19.4363207200000012 11.2423876299999996 20.8088687599999993
 14.6573301699999998 15.7482160699999998 10.2674513300000001
 15.0545616700000000  7.0179557700000004  0.7826933500000000
 29.7271354800000012 33.9660088099999982 16.7100827199999991
  6.3602263800000003  6.3247900399999999  5.7462288199999998
 11.8678335399999995 32.6783265999999983  4.6350893099999997
 26.9459501400000008 15.5839362399999999 14.2164147100000005
 25.2820411800000002 15.2661370699999992 27.9656518600000012
  3.7108341500000002 32.9894897499999971 19.3542986900000002
 32.6981538300000025 22.8713659000000007 29.0467611000000012
  8.9138424000000001 14.9492877400000008 22.6791170300000005
 17.9198815399999987  4.4490558699999996 15.2820429799999999
 15.2963468500000008 10.7015140899999999 30.3473778199999984
 28.3789989799999987 20.8358351100000014 12.8806130499999991
  9.4635844900000006 14.4645682099999995 30.9979689299999990
  7.8638660800000002  7.9971361400000003  7.8670777200000002
 26.9752918699999995 18.7303896099999996 11.6582581199999993
 10.3442603700000006 10.9840003599999996 18.0939977499999998
 25.8202470200000000 30.8916498699999984  5.9594459000000004
 25.4072379300000009 19.4478103599999983 29.3487357300000014
  9.2013335000000005 16.8121592100000008  6.9597701900000004
  2.8575840900000000  7.4157755700000001  1.9399549199999999
 19.8224060500000014 25.1784309399999984 23.8888025599999985
 14.1046727900000004  2.2355204000000000 17.3913507900000006
 11.4326824100000000 34.0932115000000024 19.6056416599999999
 22.0194282100000009 25.5298686100000012 15.5016888799999997
 31.8849225599999997  4.8934779600000002 29.6841046000000013
 10.7459391199999992  6.9988144300000004 29.0741890900000008
 14.8959921099999999  1.9393765999999999 10.1025250100000008
  8.1378244199999994 27.4149556600000004 23.1598317800000011
 12.2926887300000001 33.2194824800000035 34.8420209900000017
  4.8467440599999998 14.2273769399999992 34.5242434600000010
 18.9597508499999989 16.5325628000000009 32.7829717700000032
 13.4065294900000005 28.5410773999999989 14.8878284500000007
  4.7327535400000000 23.3888060099999997 10.6626935700000001
  7.8909127999999997  7.5714068799999996 27.6354354200000003
 18.7631260500000003  1.8595695100000000 33.7846905099999972
 14.2934471100000007 24.9655935400000004 16.7307066199999994
  2.9861294300000001 32.8773789199999982 25.1075325300000003
 22.2991558300000001  1.9120204900000000  5.3283753999999997
 24.0053354600000013 12.6730284900000001 20.5897512899999988
  6.9498835100000003 11.6921034200000005 19.1821918099999991
 10.0978242999999992 34.1329746500000013 22.9049868399999994
 34.1138695799999994 16.8059610900000003  7.7879778499999999
 27.5437948100000014 18.5594436800000011  8.5700063199999992
 11.0962446099999994 14.5830969800000005 28.1109259199999997
 30.3318573899999997 12.5271289899999996 18.4569358299999990
  0.7205444800000000  0.1910930800000000 26.7013614799999992
 34.7823478999999978 16.9212373599999992 20.2363282600000005
 16.9690761999999999 19.2636605500000009 14.3429226700000001
 16.5013615700000003 33.3838302200000001 32.0344944400000031
 33.7479762800000032 27.2374111799999987 14.1697753199999994
 11.4137925599999992 31.6116118800000017 31.3608075900000003
 16.0932336999999990 33.9788107800000034 21.8727046600000001
  9.5472361899999996 20.3986291199999989 14.7595696099999998
 19.0864412700000017 10.8184503200000002  0.6945041199999999
 17.5307411299999991  9.1661604400000005 20.6585488999999995
  8.2314131699999997 25.3611929899999993 15.5706264799999996
  0.5191762200000000 10.7947501900000002 22.3664709200000011
 13.2766992100000003 16.4836646299999998 15.9514711800000004
 31.3761250599999997 28.5339415199999991 34.9550589099999982
 14.6750679200000000 33.8664781100000027 23.8975735699999987
 21.5190336100000010 15.3978698200000004  1.9980875600000001
 16.8575397299999992 34.6702121499999976 22.2556430399999989
  5.5925977800000002 19.7909135200000001 20.8834649699999986
  8.3957056100000003 21.6242459599999997 33.7018277600000005
 21.6191731900000015 18.4438654900000003 26.0472337500000002
 30.8575759000000005 28.2781019100000002  5.0587236999999998
  6.9691833100000000 21.0639602699999990 31.9803292500000005
 33.3936260899999979 21.6736765700000014 24.4821163599999991
 10.9296073299999996 13.9104790000000005 28.4205965399999982
 19.9660271599999994 24.0184651500000008 23.3436925899999999
 22.4413004899999997 10.9373769999999997  4.4952892899999997
 22.3271454799999987 17.3341020000000015 29.2523888999999997
 34.9002154200000021  2.9205934700000000 16.4144005100000001
  6.8294456600000002 17.4931847299999994  7.9557052600000002
 11.5382954099999999 24.1310166799999983 24.9973346200000002
 25.2029971800000006 16.7736477999999991 24.6985273499999991
  8.1491393100000007  7.5843021700000000 34.3665400300000030
 28.4382576299999990  1.7960296899999999 15.8709700799999993
  8.3941046099999994 29.7162492799999995 26.0016569799999999
 34.8488280099999983 14.2522968399999996 33.3529422200000027
  2.8998775600000002 18.2422025599999991 31.6983643899999983
 19.4103483399999988 29.7245682000000002 25.8176698100000017
 22.5764918100000003  8.0979007200000002 21.4174696800000000
 23.4129280500000014 31.0817695100000009 16.3002128900000010
 12.6780508899999997  0.0012917300000000 21.7100352699999988
  5.5627976200000004  8.9395561299999997 27.1199503700000015
  0.0058918600000000 29.0245066700000010 19.8835943399999984
  3.5700040400000002 11.0579345300000007  0.7056240200000000
 29.4228737699999989 30.2394616200000002 34.6315018600000002
  1.6517187600000001  5.4371481099999999 32.1483040099999968
 21.5454549100000001  4.4606222700000000 34.6785680500000026
 22.6931869900000009  9.3937069799999993 30.0331795200000009
 32.6482191300000011 23.6189151899999992 28.1075951599999989
  9.3518729300000007 26.9283658400000014  0.0446585300000000
 15.5759303500000001 19.6613655600000001 13.5709450900000004
 26.8741659000000013 34.1063046599999993 29.6624444899999986
 31.7045643999999989 18.6139157399999995 14.0817773299999995
  2.4316097999999999 23.0659760200000008  9.8590460600000007
 10.9871001300000000  0.1919465300000000  6.0453353999999999
 33.9520120000000034 26.4656233599999986 27.7318642599999983
 29.4426242900000013 12.1863830199999992 31.5394051799999993
  7.7828198999999998 10.8540374199999992  3.8068523900000000
  1.7680477600000000  0.5787280299999999 31.6819964100000000
 24.3136645300000005 14.7597806100000000 22.6326474500000003
  6.9056358700000002  3.0220439099999998  6.4920169599999999
 16.3291042699999984  8.2554660200000001  9.6174661199999996
 10.7530532000000001 21.5650751000000014 19.2172559700000001
  4.4210816199999998  0.1188186300000000  1.9846761900000001
  1.4526657300000001 19.9529262000000003 13.8307271600000004
 18.0313607599999983 23.0802130400000003  4.1405814699999999
 10.7527201399999992 15.9674601500000009 20.1027312699999996
 11.6045146799999994 17.0782136800000011 33.5372980699999985
 21.3686242200000009  7.4672942000000004 27.8136050200000007
  3.2594962600000001  7.3537137599999998  8.8672087800000003
  1.1780078400000000 23.7777869300000013  3.2649792700000000
 29.5065899599999995  2.2574355399999999  0.7190714200000000
 10.4333913500000008  4.0084830299999998 30.5742757999999988
 26.8534146800000002  0.3405157300000000 18.0478215099999986
 19.7360661300000011  9.0635229400000004 10.6300302000000002