System 
          1
  25.000000    0.000000    0.000000 
   0.000000   25.000000    0.000000 
   0.000000    0.000000   25.000000 
  K  Cl
  60  60
Cartesian  configuration=        120
  18.402469   12.700000    2.900001 
   2.902469   17.400000    2.900001 
  18.502469   17.400000    2.900001 
   2.902469   12.600000    2.900001 
   2.702469    7.900000    2.900001 
  18.702469    7.800000    2.900001 
   2.802469   22.700000    2.900001 
  18.502469   22.700000    2.900001 
   2.902469    3.000000    2.900001 
  18.902469    3.000000    2.900001 
  18.317611   12.570000    8.999999 
   2.817611   17.270000    8.999999 
  18.417611   17.270000    8.999999 
   2.817611   12.470000    8.999999 
   2.617611    7.770000    8.999999 
  18.617611    7.670000    8.999999 
   2.717611   22.570000    8.999999 
  18.417611   22.570000    8.999999 
   2.817611    2.870000    8.999999 
  18.817611    2.870000    8.999999 
  18.232913   12.440000   14.899997 
   2.732913   17.140000   14.899997 
  18.332913   17.140000   14.899997 
   2.732913   12.340000   14.899997 
   2.532913    7.640000   14.899997 
  18.532913    7.540000   14.899997 
   2.632913   22.440000   14.899997 
  18.332913   22.440000   14.899997 
   2.732913    2.740000   14.899997 
  18.732913    2.740000   14.899997 
  18.148294   12.310000   20.699995 
   2.648294   17.010000   20.699995 
  18.248294   17.010000   20.699995 
   2.648294   12.210000   20.699995 
   2.448294    7.510000   20.699995 
  18.448294    7.410000   20.699995 
   2.548294   22.310000   20.699995 
  18.248294   22.310000   20.699995 
   2.648294    2.610000   20.699995 
  18.648294    2.610000   20.699995 
  10.452409   12.570000    2.975001 
  10.552409   17.270000    2.975001 
  10.752409    7.670000    2.975001 
  10.552409   22.570000    2.975001 
  10.952409    2.870000    2.975001 
  10.367551   12.440000    9.074999 
  10.467551   17.140000    9.074999 
  10.667551    7.540000    9.074999 
  10.467551   22.440000    9.074999 
  10.867551    2.740000    9.074999 
  10.282853   12.310000   14.974997 
  10.382853   17.010000   14.974997 
  10.582853    7.410000   14.974997 
  10.382853   22.310000   14.974997 
  10.782853    2.610000   14.974997 
  10.198234   12.180000   20.774995 
  10.298234   16.880000   20.774995 
  10.498234    7.280000   20.774995 
  10.298234   22.180000   20.774995 
  10.698234    2.480000   20.774995 
  22.602469   12.700000    4.900001 
   6.602469   17.400000    4.900001 
  22.702469   17.400000    4.900001 
   6.602469   12.600000    4.900001 
   6.402469    7.900000    4.900001 
  22.902469    7.800000    4.900001 
   6.502469   22.700000    4.900001 
  22.702469   22.700000    4.900001 
   6.602469    3.000000    4.900001 
  23.102469    3.000000    4.900001 
  22.517611   12.570000   10.999999 
   6.517611   17.270000   10.999999 
  22.617611   17.270000   10.999999 
   6.517611   12.470000   10.999999 
   6.317611    7.770000   10.999999 
  22.817611    7.670000   10.999999 
   6.417611   22.570000   10.999999 
  22.617611   22.570000   10.999999 
   6.517611    2.870000   10.999999 
  23.017611    2.870000   10.999999 
  22.432913   12.440000   16.899997 
   6.432913   17.140000   16.899997 
  22.532913   17.140000   16.899997 
   6.432913   12.340000   16.899997 
   6.232913    7.640000   16.899997 
  22.732913    7.540000   16.899997 
   6.332913   22.440000   16.899997 
  22.532913   22.440000   16.899997 
   6.432913    2.740000   16.899997 
  22.932913    2.740000   16.899997 
  22.348294   12.310000   22.699995 
   6.348294   17.010000   22.699995 
  22.448294   17.010000   22.699995 
   6.348294   12.210000   22.699995 
   6.148294    7.510000   22.699995 
  22.648294    7.410000   22.699995 
   6.248294   22.310000   22.699995 
  22.448294   22.310000   22.699995 
   6.348294    2.610000   22.699995 
  22.848294    2.610000   22.699995 
  14.552409   12.570000    4.975001 
  14.652409   17.270000    4.975001 
  14.852409    7.670000    4.975001 
  14.652409   22.570000    4.975001 
  15.052409    2.870000    4.975001 
  14.467551   12.440000   11.074999 
  14.567551   17.140000   11.074999 
  14.767551    7.540000   11.074999 
  14.567551   22.440000   11.074999 
  14.967551    2.740000   11.074999 
  14.382853   12.310000   16.974997 
  14.482853   17.010000   16.974997 
  14.682853    7.410000   16.974997 
  14.482853   22.310000   16.974997 
  14.882853    2.610000   16.974997 
  14.298234   12.180000   22.774995 
  14.398234   16.880000   22.774995 
  14.598234    7.280000   22.774995 
  14.398234   22.180000   22.774995 
  14.798234    2.480000   22.774995 
