 K Cl 
 1.0000000000000000
    25.0000000000000000    0.0000000000000000    0.0000000000000000
     0.0000000000000000   25.0000000000000000    0.0000000000000000
     0.0000000000000000    0.0000000000000000   300.900000000000000
  50  50
Cartesian
 16.6024686128032712 17.3999999999999844  2.9000009829113069
  2.5024686128032765 18.1999999999999957  2.9000009829113069
 22.3024686128033522 19.6000000000000156  2.9000009829113069
  8.1024686128032641 18.0999999999999943  2.9000009829113069
  2.5024686128032765 13.0999999999999748  2.9000009829113069
 18.4024686128032968 13.1999999999999744  2.9000009829113069
  2.8024686128032767 22.7000000000000597  2.9000009829113069
 16.6024686128032748 22.7000000000000597  2.9000009829113069
  2.5024686128032765  8.5999999999999908  2.9000009829113069
  6.9024686128032950  3.0000000000000062  2.9000009829113069
 16.5176110198677257 17.2699999999999534  8.9999990487955071
  2.4176110198677856 18.0699999999999683  8.9999990487955071
 22.2176110198678067 19.4699999999999882  8.9999990487955071
  8.0176110198677737 17.9699999999999633  8.9999990487955071
  2.4176110198677847 12.9699999999999473  8.9999990487955071
 18.3176110198677513 13.0699999999999470  8.9999990487955071
  2.7176110198677845 22.5700000000000323  8.9999990487955071
 16.5176110198677293 22.5700000000000323  8.9999990487955071
  2.4176110198677856  8.4699999999999651  8.9999990487955071
  6.8176110198677513  2.8699999999999797  8.9999990487955071
 16.4329126922743285 17.1399999999999224 14.8999971780932938
  2.3329126922744416 17.9399999999999409 14.8999971780932938
 22.1329126922744095 19.3399999999999608 14.8999971780932938
  7.9329126922744289 17.8399999999999324 14.8999971780932938
  2.3329126922744390 12.8399999999999181 14.8999971780932938
 18.2329126922743541 12.9399999999999178 14.8999971780932938
  2.6329126922744406 22.4400000000000048 14.8999971780932938
 16.4329126922743320 22.4400000000000048 14.8999971780932938
  2.3329126922744416  8.3399999999999359 14.8999971780932938
  6.7329126922743558  2.7399999999999500 14.8999971780932938
 16.3482939973520018 17.0099999999998914 20.6999953390979030
  2.2482939973521674 17.8099999999999099 20.6999953390979030
 22.0482939973520828 19.2099999999999298 20.6999953390979030
  7.8482939973521555 17.7099999999999014 20.6999953390979030
  2.2482939973521647 12.7099999999998872 20.6999953390979030
 18.1482939973520274 12.8099999999998868 20.6999953390979030
  2.5482939973521663 22.3099999999999739 20.6999953390979030
 16.3482939973520089 22.3099999999999739 20.6999953390979030
  2.2482939973521674  8.2099999999999067 20.6999953390979030
  6.6482939973520310  2.6099999999999195 20.6999953390979030
 10.9524088882999795 14.8699999999999388  2.9750009591312043
 12.7524088882999731 19.2699999999999818  2.9750009591312043
  6.7524088882999944 10.3699999999999548  2.9750009591312043
  9.4524088882999884 22.5700000000000287  2.9750009591312043
  2.6524088883000028  3.9699999999999789  2.9750009591312043
 10.8675512953644358 14.7399999999999114  9.0749990250154049
 12.6675512953644294 19.1399999999999579  9.0749990250154049
  6.6675512953644507 10.2399999999999274  9.0749990250154049
  9.3675512953644446 22.4400000000000048  9.0749990250154049
  2.5675512953644586  3.8399999999999515  9.0749990250154049
 10.7828529677710403 14.6099999999998822 14.9749971543131917
 12.5828529677710339 19.0099999999999270 14.9749971543131917
  6.5828529677710552 10.1099999999998982 14.9749971543131917
  9.2828529677710492 22.3099999999999739 14.9749971543131917
  2.4828529677710627  3.7099999999999222 14.9749971543131917
 10.6982342728487154 14.4799999999998512 20.7749953153178026
 12.4982342728487090 18.8799999999998960 20.7749953153178026
  6.4982342728487303  9.9799999999998672 20.7749953153178026
  9.1982342728487279 22.1799999999999429 20.7749953153178026
  2.3982342728487374  3.5799999999998913 20.7749953153178026
 22.7024088883000523 10.5999999999999837  2.9750009591312025
 22.6175512953645068 10.4699999999999562  9.0749990250154031
 22.5328529677711096 10.3399999999999270 14.9749971543131899
 22.4482342728487829 10.2099999999998960 20.7749953153177991
 15.6024088882999585  8.9999999999999893  2.9750009591312025
 15.5175512953644148  8.8699999999999619  9.0749990250154031
 15.4328529677710193  8.7399999999999327 14.9749971543131899
 15.3482342728486945  8.6099999999999017 20.7749953153177991
 11.4023491637966679  4.5000000000000053  3.0500009353510986
 11.3174915708611241  4.3699999999999779  9.1499990012352992
 11.2327932432677287  4.2399999999999487 15.0499971305330860
 11.1481745483454038  4.1099999999999177 20.8499952915376952
 15.7022894392933470  4.7000000000000055  3.1250009115709947
 15.6174318463578032  4.5699999999999781  9.2249989774551953
 15.5327335187644078  4.4399999999999489 15.1249971067529820
 15.4481148238420829  4.3099999999999179 20.9249952677575912
 22.7023491637967467  5.6000000000000014  3.0500009353510986
 22.6174915708612012  5.4699999999999740  9.1499990012352992
 22.5327932432678040  5.3399999999999448 15.0499971305330860
 22.4481745483454773  5.2099999999999138 20.8499952915376952
 19.4022894392933942  2.5000000000000067  3.1250009115709947
 19.3174318463578487  2.3699999999999783  9.2249989774551953
 19.2327335187644515  2.2399999999999487 15.1249971067529820
 19.1481148238421248  2.1099999999999173 20.9249952677575912
 19.8024686128033238 16.9999999999999858  4.9000009829113020
  5.7024686128032807 20.5000000000000355  4.9000009829113020
 23.2024686128033721 23.2000000000000739  4.9000009829113020
  5.0024686128032831 15.8999999999999737  4.9000009829113020
  7.0024686128032760 14.0999999999999801  4.9000009829113020
 22.0024686128033551 13.9999999999999805  4.9000009829113020
  6.1024686128032792 23.4000000000000767  4.9000009829113020
 20.2024686128033295 23.5000000000000782  4.9000009829113020
 10.4024686128032648 11.1999999999999904  4.9000009829113020
  8.6024686128032961  7.6000000000000032  4.9000009829113020
 19.7176110198677783 16.8699999999999584 10.9999990487954875
  5.6176110198677893 20.3700000000000081 10.9999990487954875
 23.1176110198678266 23.0700000000000465 10.9999990487954875
  4.9176110198677918 15.7699999999999463 10.9999990487954875
  6.9176110198677847 13.9699999999999527 10.9999990487954875
 21.9176110198678096 13.8699999999999530 10.9999990487954875