Na Cl 
 1.0000000000000000
    25.0000000000000000    0.0000000000000000    0.0000000000000000
     0.0000000000000000   25.0000000000000000    0.0000000000000000
     0.0000000000000000    0.0000000000000000   25.0000000000000000
Na Cl 
 5000 5000
Cartesian
 24.7644750633111563 16.5323890706209440  9.8631099261637356
 19.2885290339070039  7.3074728750192897 16.6966104492063678
 19.9318198114316054 19.0955707310212652 14.2572762743836616
 22.0423435662138942 15.6683173569237422 12.4098178173461076
 21.8080561360381822  2.9994783936997309 12.2333629113777356
  6.1304515256222576  9.4987911332858683 21.1825771355920374
 15.5739178953570860  0.8380672665490151 10.3965488892963851
  9.7971824043417275 11.2446697714015240 14.1648479454055654
 18.5994184313339268  0.4255754293061679  2.6462403487629444
  0.3615416588082638  1.4306595904895383 20.0957373576684546
 24.0577703337454096 13.9459992591040187 15.4095477612733589
 13.2692237213576316 15.8430848577260441 24.7272038016129301
 15.1142937085192166  0.9343590824559140  3.7730988365472755
 14.4721458500587126  8.3553019367881589  2.5596515985949204
 20.0644175848292292 22.6663482248160726  3.3146144837674751
  8.7256286799561362  1.6412240227876345  9.0521509917695777
 14.5017186712947304  5.3857084505193438 17.6019278786154132
 10.6018558892430068 10.3919305072128445  7.1760347262844606
  7.6156446629276706 21.1398498253616722 22.4560148536488491
 18.2416452761933421 12.3321569814962135 16.5623880068596421
 14.0552312899638121  1.2722904217766089  8.3851187994634362
  3.6916625819595823 20.7730149946981193  7.0630158912683916
  8.1080845478494119 22.5769957050573993  1.5668148997085236
  8.4580194011600778  3.9320752974283302 11.3895238779436436
 23.7278165988287952 18.4135765155840581  1.9804974212220394
 11.2201584788133193  2.2035534154640293 10.1222537039417091
 24.7180021483069297 10.4621065945653733 11.6255348602428725
 15.3643961019648216  4.4052857227648072 14.6371425081217392
  6.4541340020737303 24.6301728531858757  9.3151434950135386
  9.6167206925417865  3.2246795497949607 22.1891934039020882
  8.7735393823932561  6.8763998834772035 21.6528416013591176
 19.3087940427049958 22.9014757428790787  5.1028105686897458
 12.9372279685629668 10.9904676377728894 16.7895880489561655
  7.6063388062670541 14.7363169303798678 23.2786488944099510
 19.2519683480504753 17.8320256843380740  2.8556766700258835
 20.3577931250249016  3.4290522935004217  7.0818968615876026
  0.4405527028444002  4.3692767058356088  9.4335949790820450
  0.4308134319404203 15.6813506226434143  6.4599147678631894
 21.7875034766213531  7.5709315750612554 19.6469820545273777
  6.8273904415906363 22.9511518138233335 15.0085349287877481
 23.4465481356934404 16.1345165996507376 22.8204903299084343
 18.9809747710735408 13.2429774330197727 24.7217167633221102
 22.8936411546979315 23.4268870080946421 10.6899450466455637
 15.9063989719871426 13.8475221879070265 10.3054121533899625
  3.0620620250990904 14.0764558404108762  7.9933097856088127
 18.5575667273055593 22.0239858245588778  7.1297533610508559
  4.7647391817368279  5.9714274508745540 11.7811668486246681
  6.0712248348031306 14.0757985362204714 21.9459982574665915
 21.3927132409963363 22.3314414254070464 24.5360368162095739
  2.1707700342735134  9.1319660349432219  5.9531492907335748
  4.5801293591876187  3.2341398663046492  6.1887329822353703
 14.0352324298747035 15.1514489041415263  0.4017319066458065
  1.9081549960692203 20.3610189353865643  7.6452470420139127
 18.6670351278349003 11.8593935211465666 20.8269099103412181
 12.8748631048364874 12.8242029868179017 11.3795994484702128
  6.9279304388574934 12.7268858778881313  0.7709496658160117
  7.3510333697083556 23.8178446883418786  6.5156769619861974
  8.9827001020231751 22.2406147035027928 23.0113217714295359
  1.2850124162086343 22.2036792185174647  2.2366256230681323
 15.9668469060989295  4.7959508047420298  5.5451752993022909
 22.7612553736014540 23.4190641196533420  4.2106590136935278
 18.5460431471215763  3.3471736723311123  5.9479108690041631
 16.5379753529736675  3.7517574284001056  5.7870991205736519
 13.7749194813775446 15.0717235124072637 10.4570730288778773
  2.0263963504817317  7.6434625464693928 13.6750185110955567
 11.0361159830522340  9.0013271588838322 10.3055593605644820
  5.5361730072350115 21.4597325988392029 23.7257886904877573
  9.3305210277114625 18.0669127465537329  0.6025313286122546
  1.7440399861633964 12.0800474482029898  4.3574619476485354
 10.8629541289354474 23.6700450180424582 22.4466182396032927
 10.3127530125494840  1.4398819191567052  0.0954152667407949
  3.6443881125396058  1.2310074531617607 14.5422652897156137
 11.8527242503374453  8.7364754214587048  8.9424084564402726
 20.0589273916831843  5.3926720192621795  9.6386277394549129
 21.4164170187043119 20.7208333633471433  5.0463377754419749
 13.7989918532776610 19.6560780376457060  9.7035787113493210
 13.0474016480368569 12.6794985554551243  4.3322215342578581
 11.6473262718167749  6.6126504245273070 13.8156850304527588
  0.2183068195443167 19.0827160813299521 23.2091789125507582
  1.6699832406220880 17.4083251354323352  6.7205512112567911
  2.3042075928785875  1.8170135104176650 13.5460695896977867
 18.7915940507275963  5.3212105786992288  8.5861961979354717
  8.1994987014678760  8.9746755706028427 12.3723151219879810
 16.5002552520019243 19.7900203963695169 10.8728017825040979
 14.1795585463659641 15.8404887727650294  6.0948038618521787
 10.3685061495604476 13.4828556624627005  6.3551190105989193
 10.4852111360454980 24.9435635166911247  1.4720250277184066
 15.3246408632605515 11.2389888201090464 18.6850995727279710
 15.4685188389702333  4.3961265726928263 10.6993072483219702
 23.2569225473594479  4.0972534702612338 12.5390746805533198
 19.2281560596209751 17.6188940497203248 20.7522936494798849
  8.7993668084029899 15.9579488290278011  5.2459694702392303
 19.0088863107417190  7.3522246360556336 18.8394581870359659
  9.7737495134462371 17.4080724909007891  2.4743545695554250
 11.4772505180338626 23.1494565951402542 22.9169945222870446
 15.9269360783169667  9.0146682732806855  9.5296690284878327
 15.1473617950209256  6.7096889166672193 19.7416224259611326
 22.4481131287515687 10.4373549276205502 20.6242685185858363
  7.0809918721583642 10.2303953656136972 17.2549098694021374
  3.2701750417566742 11.8319268044232988  9.1938019423716710
 20.2292454406755269 17.9281214335598627 17.9369338405956213
 16.0470588905955935  2.9187742401467514  5.8386541464546013
  5.2602394624893734  8.8446460589043081  1.9663120047032423
 22.8058630473939061 23.1402375493851693 17.9724925164936558
 13.6817247088447811 23.7471815542071987 18.8803815603630518
 22.5728850218341144  7.4785619659715152 17.1909620832609775
  3.4997333672362068 20.0187031389301175  4.3436559985129426
  3.8263670070219629  9.7502870181343919 23.0739137847320706
  3.2689799919114351 16.7467240554963830 12.1912007276859136
 22.5106302171529400 11.1620596894817705  0.7372011201163758
 15.1392257959298924 19.9679521936774016  1.3725191361142877
 17.9291206728336938  9.7311483159340675  1.4097459038764919
 18.5994064521973073  0.2242420801074440 18.8366403658113626
 12.4146281915784940  2.6560158597566259 14.6585549296152564
 16.3327020436211967  3.7232471414484305  1.6147063237683410
 13.3691835745094281 20.8683367799354436  9.1362603749783062
  3.1281222603880434 24.3508303418526566 14.4055555176015737
 14.1715843296477484  6.8178283897311562 12.2417462115370412
 22.0285773030615317  9.2987325551448077  8.7980543187810358
 18.8989357528737436  9.4131985490271806  7.6280134998392386
  4.0228917980673220 12.7424501174792866 12.3591244743946582
 19.8050411510304762 13.3266253691756287  5.5925797347876154
 19.4876025754434998  3.1364854789043246 14.9114439449791991
 16.6383832654163157 16.3075418520288267  5.8559070484973059
 20.2297640942175683  1.6451315147081071 24.7253676991562195
  9.2549197186040324 22.4357105779627872  1.9876838205324876
  7.0019716895194595  7.1381857535513991 21.4879599383510467
 23.1426838660345808  9.0877364431916430 12.5864007219608887
 14.6369339966387173  2.9496815069344278  0.2970870469217594
 18.1419976140102364 12.5538986700372313 18.3749473157222134
  2.7395353432463181 18.3705139408682072  3.2278041719588471
 24.7047181123423947 12.1973141386161146  0.2587277210591025
 23.4368078403346267  2.4293725040878043  5.4636762037238462
  3.0059559866813736 21.1022681538491810 15.8208617432140102
  1.2233181978684469 10.3089515749872440 12.5491208106042453
 13.0734638255431612  0.7065159039136562 24.4127970768198352
  5.8804701109791502  8.0611552265757496  8.8358930586073061
  4.8546360129744910 16.8674700622761016 16.5693366744412742
  5.8414873345016911  2.8776309699181613 14.3437114145344626
 24.7577440807399078  3.4047649956330495 23.8852816046612695
 14.9279295419938531 18.7118122906944784 14.4291697020778287
 11.0551828220743609  4.4576906037785538 20.4059777061482777
 13.2673072341211640  8.6326838744025132 14.5178770830472370
  1.9601347748935849 18.9851616364834648  8.6116243775988117
 10.5709143032184407 15.3566941923260210 24.9592904234115451
 15.7941462778459059  2.2164917561302389  2.5769452809248796
 10.7193365044516202  9.8886303184035373 23.2097614082553250
 11.4599885472375842  8.0275134220847466 18.4180849783206746
  2.7542306355918900 15.3542923928956938  9.5922473979146439
 16.9020167514225541 22.1955411588752369 15.4602572161053580
 15.5430310827414644  6.7234076358021273  0.3121349263527127
 21.0517072100433076 16.0430791978924887 11.0320789790861671
 16.1514015012194427  6.6050309951440580 10.7559353861752598
  0.0060354475891383  1.4377676306468283 14.5605682812447519
 19.4711028805333655  0.8261131242970532  9.4832800605722145
 10.4879780372083076 21.4468713600406744  7.5669482036339799
  2.6984584763173287  2.9916114653421619  5.0138980057155242
 18.5837820608093303 12.6250960224424951 14.9888491909899066
 17.5883529673276264  7.4483218753935407  8.9457597392358625
  1.3839373371489054  9.8348254616534465 18.9115340094601443
 21.1520969966203438  3.2942221980980699 15.9924834342638409
 10.6690796723910974 15.2220538771813985 12.0595137877666918
  9.2482309947946248 10.0183295132677674  3.0641294913665065
 23.8243613968716765 16.0419972222493961 17.8473143455792744
  9.8122061508764542 13.7487777805648630  0.7081579536703220
  2.0107273371008820 19.2943546545199851  5.2186785173689385
 10.3298414197423689 13.6447416099928063  2.1722391490695250
  8.8233784115050824 19.5209621659112003 13.8111224695160626
 23.5353451564606964  8.5460446349093910  8.3721789221149763
 11.2111439864203071  0.6969797661048266 14.1389289238205791
  7.9784226524543120 18.3495197996262114  0.3792723176904360
 24.4298434231569281 17.3784129984576303  3.9872650774136487
 13.9641560911965357 20.5714247401670676 18.9356079878917001
  0.7634524958038016  6.3460969744930500  8.8518503046835999
 23.0480708172768693 18.9262259723275079 18.0799169084429359
 19.1634802004152327  5.6117283788564283 16.3188634399878154
 21.1378358752177249 13.6075547843275384  2.1732601929331476
  0.9840626274161333 14.1405789829513875 10.7109664639974795
 19.2133604056264105 18.9483373630551313 14.7060608676197297
 14.7650020847865378  5.3900390073610653 15.3855967174217092
 10.7240297066625345 13.7672798772190124 11.6728964199651486
 11.3701303542452550 22.7808637999840400  2.9778863317230186
 24.3355772687753529  8.0471563074026058 23.5560585155878499
  6.6754714849756436 19.6492479856355331 19.9108945764186309
 17.4051458679163567  3.2866020702228891 12.9209942360972025
 13.1501260856865567 14.1691221339484308 15.4357052712867535
  2.8984945164520730 14.9973380099969624 10.2599340189527410
 13.7110565387229713 16.7272463169541403  9.8288490482740318
 18.4659543416769978  7.2946205652759497  0.6878405929020794
 10.5368449052501667 17.7523225395718214 13.2849225836270115
  4.6938630192046347 14.7557637722956763  0.1217209734589425
 20.7644009244462460 12.2863371680892719 21.4687840763799755
  0.8539717182768377  2.7026690788113834 23.7592075829204212
 21.0018461435110524  3.0281339902561784 18.8479742355868076
  2.9029775075162654 15.3429688258762322 19.2770565018416633
 14.4886264528560567 10.3447931517589815 14.9385016131859754
 21.3966128166749208 12.8716098553834541  8.1468394296927560
 23.9302948461520906 21.4654792782224142 20.3102290841332760
  4.0202170279902489 17.7875894321070938  6.0155854239201103
  3.9442198252976963 15.5026037783839747  2.2617032994803523
 12.4473543662798374  2.6848340652346767 24.0061343992157532
 21.1008476191669914 16.9459353396417285 10.3352533585090445
  4.6031964615002261 15.9229284342950805 16.6581951974230797
 24.2866830896989825 11.2826885708061457  3.1468095388947099
 13.4279202033895615  8.0548583683813266  3.0045973849504239
 23.2682488617805063 19.4586199449648234 16.0254150238006439
 14.1503050174332703 24.1764280009905015  8.2254126473448288
 19.5103639245547171 10.6864799911559007  7.6692113572122578
 21.4352806664236262 12.7621605818914983 18.6328998504359760
 13.1477862774151326 24.8439645161125640  2.5116223038693994
 12.8360611329954413 10.6794622543637931 14.7221090922700739
  9.4875137831491951  6.6441533885170490 18.2860008060401320
  7.8155471164805563  5.9003866887187524 17.7990772960703261
 24.0921150539499322 16.1777117364936096 23.8011552480986133
  1.0162547933944757  5.1943125809516353  0.8115480541305375
 14.6881457719431001 13.6659890476921504  9.2779245620024966
  9.0781135759680129  0.8548712943936100 17.8218448734012647
  6.7467872550463239 18.2533955635751575  9.8192370076753370
  6.9163879993913646 18.7331057706536299 22.3086873755365112
 17.1087206420994917 21.2678317661713017 23.4484940410817480
 23.8393484609384778 17.9295829930014818 17.5013633759233009
 20.4142591429009386  2.4534147360610845  9.5414689786459643
 13.4691241027177888  0.5687943778786783  9.7271090069446284
  8.5210797183779441 13.7868267781039826 15.1976595936332171
  2.0647901934873265  2.9287819414999254 24.0380907892426876
  8.1918948018885658  6.1759353411271869 23.9452783246269796
 23.2928020056769256  7.1233094120972371 21.4612891182588825
 24.8862105770438014 12.5411683751927541  4.4168818646189205
  9.5334986501994994  4.5118139030001192  5.0562677230016648
  5.6916204889731574  9.0655581718615998 14.8361944778990900
  1.9205900500158732  4.3569706167825357  2.6051562640839987
  9.8613304597611204 14.3810372051694610  2.0923072831203728
 15.4085074041078371 20.7839408404119048 15.6937048028659571
 14.0966217681284167 21.9220569342943179 19.0108946845917473
 16.1069639334953223  9.7428302558804063 22.7481105820034237
  2.4945517315038255  0.9309513847953415 21.4999242553021404
 24.2269588630772006  7.4976117385074552 12.3604890947977495
 17.7402162657772244  9.8147789178484945  6.9892722796598790
 18.6992042435795085  2.5257218408052444 24.8069784137452842
  5.8861998170084320  4.3603244607152067  8.9732112404765605
 12.7613186895667194  4.4832155478574407 24.4037128400074863
  3.2017020057894765 11.0056113037306869 21.3091818016530858
 18.4185403834183425 10.4082241120786509  6.0226517059014419
 22.7072210855350001 15.2647845867391609  5.2345493250687376
  2.0705064302638672 24.0015734448104965 19.4448869300283889
 10.2146329871446984  2.3366149409378947 21.4873123431984858
 12.2585521369513835  4.4857657418985690 17.2648240892518423
 19.8984680557150710  8.5526124031993618 18.7566605716741925
 18.1942281281548688 15.3921498988718479 20.8633503391702426
  0.3291504342710369  7.0313487933163294  0.8791692675459987
  1.1978796455999277  7.7632035979829750  1.1628712998530228
 19.3779366297544620  9.9809362832368045 24.5961123609897285
 11.8604511543458564 13.6025510908116356 18.0761832711641581
  6.4122384560351433 20.4917305826636635  4.5159028281997440
 23.7788335530920101  0.8555268174295904  3.8392205391261820
  0.7796010937446733  2.7555825667248959 13.0761989453230978
 21.6756740453074102  3.0536794816393775 23.1910479130181706
 21.9422740963950176  8.8007381110455558 14.0054323426473122
 14.3013828733476736 13.3419523543407905 13.1932194056889127
 13.4385514135652002 11.7336077903088221  6.7461317203688118
  7.2358242386187541 12.4979784653978321  3.5240679413657952
  4.0098905349196361 19.2302203943162340  2.3141672729114848
 19.2093558233274884  1.6433226650782500 19.3240319701489227
  4.0053222929152295 17.4517770262676173 12.0164804798627642
 10.9874250534863336 15.6528739447951644  2.8523901723569214
 15.1216268027767669 24.1816742691126088 21.3994409755801023
 10.4044765748104435 18.0377928391274942 11.1842472158299060
 23.6429564532092584 17.1691090879818020 11.2164417101146849
 14.7358218975066322 14.9586313939460709  9.7178380515975125
  2.7041331993900859 23.3666821491749417 23.8268811832307286
  8.3920465588532611 20.1265146467492535 16.3316679146753927
 11.3426419493475183 10.7832426837567432  8.9597858995943263
 12.1216144818447606  2.9745963648774647 19.0411044955444986
 23.8432566164262880  8.6139522765828076 24.6959125272444986
 14.2018453982667268 15.4156086688933929 15.1348980912635565
 22.2322198665850905  6.9192976955879937 17.6363697474060430
 14.4663446533802649 10.8545893620953855  8.0834087371283250
  7.8506449157607943 20.7890991916829257  2.3901146149216754
 20.6563329885976081 20.9885393599926218  4.3810233959839788
  6.8602163027321073 24.6554000185129247  8.3081111467015525
  9.4240426129773454 14.8841963102501804  8.6873863747750342
  8.9028008440056823  4.3737852034968254 10.2079151711463538
 14.4302814567602606  4.7404437697215212 22.6384377096027336
  9.2225852931023500  3.9910211712080153  2.0928244931124262
 24.1012557405518635 19.8052314551571520 16.5250668262713880
 11.7981491432516599 16.4926506306476206 16.9791492945417524
 18.5621933632354228 24.7838558977394641 17.2660733071463497
 15.8940732087446719  6.6884193716982470 12.2643801324369299
  2.4368858674712879  6.7407745899356790 17.1985330489457269
  5.7449536308389870  5.4356735108586376  7.3646970011129493
  3.4624977053434112 19.1989337067114825  1.4788086998643395
  4.3378186199524524  5.7175455408718188 19.7879054326507777
  0.3266065615818866 14.2764805067686744 19.8078772611021421
 10.9931273437073109 11.4912656887859406  8.7024314253136659
 11.7649652467877441  8.7709027616171653 12.5627144996834534
 16.5425961797789647  6.4139935450693564 24.9895119806702759
 23.7278591253458799 19.1283196882011026 14.6689995958791126
 16.8762079402227911 13.4268513244701797 15.0902103702957788
 21.1656935611580010  6.8116823825108268  8.9458028594710868
  2.1086591305717168 15.2340075188474753 12.9643692695369790
 17.1543131080243327 12.5404065649678955 16.6131374154301064
 17.0005411338063617  3.0948358835162759 14.9066942580541095
 11.8103951154325131 22.3107050742538213  1.0201829839591789
 21.2154114019197451 17.4194320651793078 18.3947194686134914
 10.0501089869300415 12.1817433332008047 13.5602011059225536
  6.2999872403684947  8.8855488732855523 14.4199133102874804
  5.4830060016750384  2.8818701523737378 10.5916509454099703
 13.8774395053635544 13.1257666452442141  4.7600066195055870
  1.4312540304061276  5.0864890357882198 13.6212244926119332
  6.9200473287701829  5.2354546404608779 17.2861422259761675
  3.1923919814603368  4.5320324038770199 19.8686119610763221
  6.7612298097280918 10.9894121000493943 24.0491655301531608
 19.3250652841874704 21.3722313388121457  3.0921114157382918
 19.1165643134697163 17.0964164855407645 14.4718724835998707
  3.7608318630423550  8.3011221528524164 16.9600229905732078
 22.1064025639120487 17.3078916698265317 18.7352947745170901
  9.0992753087073908  6.5201134451292981  8.5466722881173123
 18.9211463876632742  7.7073374566190580 12.2206333965159182
 17.1854952430285053 11.6185495800425063 22.9627917744046037
 10.6413524181774584 24.2100923085632225 24.0214300220932024
  3.1743813204459759  1.8268527355170123  3.9139258344256902
  6.3514991925803468 24.6469296979005144 15.9474326139071163
  3.4999419369268892 23.5241339302268493 20.1189653226728389
 14.4501781624044199 14.1443755310701071 24.5195506953259716
  0.0885363435784990 13.0303265238321977  0.6978860477441391
  4.3708044357461873 10.1101515861741049 21.3177088281687865
 11.7322750327793290  9.3464759221982572 11.2208243860960124
 13.3954571156741391 12.4477431352472614  9.2188741006976347
 16.6170104251322392  7.0942151975325380  7.4748249293653410
  4.3825878432870784  8.1538821259298739 17.2968905033994886
  8.8386906352074295  1.8735059312887052 13.0141871692678830
  4.4437538853118914 11.1715504369565988 10.2481939295531213
 16.3953739993252654  7.0508066597631229  2.9075306388118913
 16.8674465114564853 16.1735180491458230  3.3178519938689899
 13.1384609561126968 18.1132893860867661  5.0547119602815771
  4.5439164524636775 19.6038165570254534  6.3448739267628982
 13.2960871040337185 17.3359574947207982 15.4376137724321403
  9.9746732669764544 19.3335980732616051 14.7828173077585259
  4.8104914975401440 24.9305991572004721  8.5800350683648308
  4.6493940077020763 17.3650874487893141  5.0247518019865973
  1.0035359887422695 16.4293627913246709  3.3004337937107469
 20.3907708965198928  7.6864578098461296 11.2964100839087784
  8.7642802548428431  1.2582431436787560 22.2925158088526310
 20.3131993861464757  3.9420829638569068  4.5883735430372754
 16.7941378274905198  9.0744666331794424 14.5607038468870833
 21.7495546311836492 19.7646863035693237 10.0827040896204778
 10.0076342513820311 23.3088629778050169  2.0600679689366688
 23.5623539185907482 12.4823097546968178 15.1800471894350117
  6.0531128342510723  9.6674052577779648  5.0801674742624945
  7.3747399297425247 22.2539991826070498 22.9642620766368992
 10.3527220363508548 23.1992649488147649 10.0459947297563748
 18.0334230153977053 12.7406197892225439  6.5967974632963529
 22.3749656217987472  6.0472055715728574 10.3840414250195217
 24.5842303031050733 12.1587042869807700  1.3429512858125154
 20.9822606509468805 23.8547604642132107  1.9591220314424123
  1.9639824526216754  8.6530812124968879  7.3359384352042980
 20.1172804786438491 11.1330045671821587 12.4077606305516142
 12.2329176809792024 23.6474642174539440 17.9311027484625143
 18.0438934094476942 13.7165325874074036  8.7631965562529857
  8.0445209439119889  4.2635043287945464  6.7172540499443434
 21.8888174145896066 10.3542870075229025 24.5017354374293852
  0.6674968757049632 18.6199899733159633 21.1714815214143499
  4.0899304110044294 14.4604177514372481 11.2411484058206650
  4.9812566279346386 19.9801456974726861  6.3087374234147076
  5.9498753309947787 24.5546880292495189 15.6417075966679064
 15.1795771974975118 23.1539583407128049 23.5778323600896798
 22.6284760272262950 16.7965895923769963  0.2812790802127119
  2.4575011350482243  3.2215767555039272 20.0405297544973564
 21.1835838370880047  7.4935499380778285 19.0938092740689456
  9.6524692767544042  4.0511344112693957 12.4160502047352725
  1.5557909857275853 23.1790971235274768 21.0853551263387118
  6.5636083747090819 14.5659537355256994  9.9844329804109559
  8.3651017669425816 17.2653970039754157  4.5274458148178853
 17.7818096442063407  8.8746901759294285  6.9177868458990872
 17.2435190259681619 11.8242694469281791  5.4965945219139538
  6.2641298078299172  6.2296801974203815  2.2350780443451730
 14.9566913093238547  2.1108358060525898  1.8173923258750664
 19.9128209822405218 24.7822485164656534 15.2508162382295414
 20.4685159239305712 14.3471335011288232  7.2727534721012939
  8.1676056064514473 22.9474276294686952  2.4161684803739973
  8.5436496457753925 18.1195965470371760 11.0591660538032492
 21.4038662712107737  9.7804202394468795  4.5229643837190068
 17.4623971653461432 15.5091579726474169 12.4180462851273106
 10.1039141347184369 16.4848622127831277 11.0792102460186968
  8.2866048362509375 22.9674828694981912 14.4845876560940354
 17.4647359724458013  4.8174888965755187 17.5358847447372419
  0.6149047988536325  9.7049543330003285 11.1674747365375406
 16.7478969864304617  6.9046509367901132 21.4682946314421912
 17.6278706489260628 21.6219965003533261  0.8951814383711578
 20.3144347040515569 24.7040709944926533  1.3212044380238299
  5.4829898665114261  2.6106864575346402  2.8072917846996766
  7.1530254474622312 20.8986954977264148 19.3752302878420934
 14.4954477620755551 24.9905372038439531 15.9587850053602764
 19.2995850901583132 18.1266102907837414  3.9391572023458581
  5.4150998268346768 11.5827896104114085 21.9449821845372135
  4.3155755169296528  6.8777130366664911 18.7230072537078556
  2.5829130679289403 11.0199326817039083 12.0085813975932911
  3.2275493504607815 20.4219331943532154  6.4311974944692096
 14.1362895440013574 13.6183660307984642  8.8778796297860705
 10.5229378144829244  9.0158480145110982  4.3575798880111334
 12.8451778031164672 13.9033369784724616 23.3845971866439086
 24.9249159241676885 13.0619374863160473  6.9833325138237949
 18.8695598365131580 15.6921722766441167 13.3394535576642745
 21.1959436634536580 15.2251516656135930 14.1240439676325966
  7.8069640010627745 11.6439658620599502  0.1342436415768432
  6.2328839820031474  6.0810855268878328  4.8044504038078948
 23.3979367992831087 24.1237855512293926 23.4637595123908298
  5.4061247526696530 10.7387181188625842 10.6354237234384854
 24.5665198306397166 14.4987935617094834  6.2233916512799405
 21.5434830619690416  6.3198225136472956 17.2569868700844182
 13.1783255088042122 13.1168264723926900  4.5025215039507120
 23.8789168996172556  7.9563318672386609 22.0696926801789992
  0.3248757684253509 10.1870399248725914 13.5800173336546948
 14.3513267344568511  2.7484260163029779 17.7960560041461413
 23.3132616841761688  0.9891259488599030 24.2398224883898266
 23.6965623678157833 18.1237158799188762  5.2927937965340881
  5.9853383484228226 20.5816219423811972 15.3199856008030402
  7.9979926967052712 22.2632535254877304  3.5020028722947476
  8.1622746578242040  8.3501740514068743 16.3752819953371223
 19.3644956310114331  9.0780704091666600  0.1293668640448558
 24.2688840018906085 12.1334197754661641  1.3861662598262385
 22.2963288995885875  9.3998153854160638  7.6971826877897529
 16.5494336823697346 21.3318995881508577  0.2363780514506521
 22.8059107311097478 23.9416577615503492 12.4419983767168585
 12.6667174802472449 14.5206905154142021 24.2454925664912402
 18.9935650182857927 24.8472623293508121  7.9379693991215765
 13.4516910363229414  7.5712474796787124 24.9563909601217091
 17.0628667655693675  0.6017289243646566 13.2580317967841559
  2.7404085512926843  8.0465215761431139 12.8881302372962825
 10.8048982386500096 22.9246969907193900 20.3823230207815413
 15.7030102753560108 20.4936979084711979 12.5807476754210636
 19.6261808018322021  7.2207363938077984  8.9165707276745572
 10.8042200262677959 11.5259814828289588 17.1707819063080400
 14.3314993192122788 19.5090580007569194 13.7378187215597478
 16.5192532546442266 14.0894508054896512  1.3996878645381368
 24.5539392924653086  3.0576884644374664 15.5700218004966260
 10.3564009467868150 10.0307126459808611 11.1874410003365199
  2.3208926559057517  7.2428678079707858  5.8792485650066517
 12.5306320667875148  2.3331464977623644 13.1931878920612817
 12.9089018739335710  9.9137952015333788 21.1559521714951622
 18.0881463191882439  7.4751865968458286 10.4611331878514644
 20.2654882195710613  2.0605063308312124  5.9299022801825325
 13.8676230278181016 23.1402285388392528 17.8210522713237687
 18.4255241385779911  2.7841970803142511 19.0003288416193463
 13.5268410963596963 20.6183065174232745  6.8776383329544384
 17.4674619652645013  0.6332502004845302 18.0361195434984367
  8.0611675782414007  9.0434875032135693 18.8944665104590648
  9.2986412855324527  7.2640859439336163 12.4924596922902662
 10.7700483225146542 12.2021565037789550  6.6443590129000878
 21.7419298117709978 16.6143464351139727 12.3205349605160475
 21.2310813931892994  5.7849753325735103  3.0804145629892190
 22.5275601598096813 20.7036059213353347 15.5047198829728732
 12.8270731250881571  9.6180133566344228 24.9504849547289709
 17.8006341298113746  0.2578197397560904  8.1763660806121141
 20.1847168478112309 19.5360611633099879 17.5799717510025815
 16.5852191003901979 22.7774202580458578 20.1022769767335951
  8.9691479615723484 19.4697901464392409  3.7629912042817995
 19.5931703641978885  2.4143110739133835  2.3262192622414881
 21.7671404926884620 15.3302606150183180  5.6901566128666303
  9.4621924494682776  6.0684982133416918 18.2494716338112362
 18.8697494654309708 18.8792654983137105  3.8152301585372679
 22.5732745358595963 14.0251241922495531 20.2622991382434492
 23.4616164576549160 19.3878038061725917  0.8185703427617300
  7.7117507963961689 11.3956350304166030  1.4379562118267435
 17.7300521720806366 13.9868561592823148  2.0914690578782320
  1.3204557594472801 17.8999490304384139 19.4433545784295347
  9.4603996651528401  0.9371722237845754  1.0535651473577903
  7.2694316423821403  2.3376135166443950 13.2703742423422497
 10.1798910462203871 18.4288138260267758  8.0739740319894509
 24.2815556466959208  0.1057540183448019  2.4077863210848469
 17.6646984730217156 15.5872360759355288 24.6767282484456558
 16.7716716261448688  6.4850206167833049 18.7415062769975087
 13.4959974971115582  2.2299339539510821  3.4999640558380465
 23.8958864700495646 18.1639021230693452  5.7029824264827100
  0.0256418949112491  5.9633277733639485  0.6498869278700495
 22.6495967119231807 21.7719372928943180 20.9500816748245065
  8.0227087754861959 12.6663895964931665  9.0099482606211438
  5.2004162595609280  3.3960744405147034  2.8231217306214953
 23.2069265554691313 13.8146177697063504  7.2808554546352742
 19.3376260550402215  7.4811070610215458  9.9663745891146238
  4.8577192494914492 18.6874262027849554  4.5721902067643549
 19.8008050885055233 17.1311225123382727 22.7760648693777945
 22.3222596325549567 20.2176443511702324 22.9486101181007029
 22.2902549185279071  7.3144156985517670  8.3846455595384555
 20.7379191628368176 17.2073697984252938  4.2642021338754343
 18.4452640444251088  9.5527946527827510  3.8197293196896696
 23.1906760242724204 15.6919399465862384  9.4346822749053505