 K Cl 
 1.0000000000000000
    25.0000000000000000    0.0000000000000000    0.0000000000000000
     0.0000000000000000   25.0000000000000000    0.0000000000000000
     0.0000000000000000    0.0000000000000000   125.000000000000000
  1  1
Cartesian
 7.5 2.5 3.1
 15.2 5.1 3.8
