 K Cl 
 1.0000000000000000
    25.0000000000000000    0.0000000000000000    0.0000000000000000
     0.0000000000000000   25.0000000000000000    0.0000000000000000
     0.0000000000000000    0.0000000000000000   25.0000000000000000
 K Cl 
  60  60
Cartesian
 18.4024686128032968 12.6999999999999762  2.9000009829113069
  2.9024686128032768 17.3999999999999844  2.9000009829113069
 18.5024686128032982 17.3999999999999844  2.9000009829113069
  2.9024686128032768 12.5999999999999766  2.9000009829113069
  2.7024686128032767  7.8999999999999932  2.9000009829113069
 18.7024686128033011  7.7999999999999936  2.9000009829113069
  2.8024686128032767 22.7000000000000597  2.9000009829113069
 18.5024686128033018 22.7000000000000597  2.9000009829113069
  2.9024686128032768  3.0000000000000062  2.9000009829113069
 18.9024686128033039  3.0000000000000062  2.9000009829113069
 18.3176110198677513 12.5699999999999488  8.9999990487955071
  2.8176110198677859 17.2699999999999569  8.9999990487955071
 18.4176110198677527 17.2699999999999569  8.9999990487955071
  2.8176110198677859 12.4699999999999491  8.9999990487955071
  2.6176110198677849  7.7699999999999658  8.9999990487955071
 18.6176110198677556  7.6699999999999662  8.9999990487955071
  2.7176110198677845 22.5700000000000323  8.9999990487955071
 18.4176110198677563 22.5700000000000323  8.9999990487955071
  2.8176110198677859  2.8699999999999797  8.9999990487955071
 18.8176110198677584  2.8699999999999797  8.9999990487955071
 18.2329126922743541 12.4399999999999196 14.8999971780932938
  2.7329126922744420 17.1399999999999295 14.8999971780932938
 18.3329126922743555 17.1399999999999295 14.8999971780932938
  2.7329126922744420 12.3399999999999199 14.8999971780932938
  2.5329126922744392  7.6399999999999366 14.8999971780932938
 18.5329126922743583  7.5399999999999370 14.8999971780932938
  2.6329126922744406 22.4400000000000048 14.8999971780932938
 18.3329126922743590 22.4400000000000048 14.8999971780932938
  2.7329126922744420  2.7399999999999505 14.8999971780932938
 18.7329126922743612  2.7399999999999505 14.8999971780932938
 18.1482939973520274 12.3099999999998886 20.6999953390979030
  2.6482939973521678 17.0099999999998985 20.6999953390979030
 18.2482939973520288 17.0099999999998985 20.6999953390979030
  2.6482939973521678 12.2099999999998889 20.6999953390979030
  2.4482939973521649  7.5099999999999056 20.6999953390979030
 18.4482939973520317  7.4099999999999060 20.6999953390979030
  2.5482939973521663 22.3099999999999739 20.6999953390979030
 18.2482939973520359 22.3099999999999739 20.6999953390979030
  2.6482939973521678  2.6099999999999195 20.6999953390979030
 18.6482939973520345  2.6099999999999195 20.6999953390979030
 10.4524088882999813 12.5699999999999470  2.9750009591312043
 10.5524088882999809 17.2699999999999534  2.9750009591312043
 10.7524088882999802  7.6699999999999644  2.9750009591312043
 10.5524088882999845 22.5700000000000287  2.9750009591312043
 10.9524088882999795  2.8699999999999779  2.9750009591312043
 10.3675512953644375 12.4399999999999196  9.0749990250154049
 10.4675512953644372 17.1399999999999295  9.0749990250154049
 10.6675512953644365  7.5399999999999370  9.0749990250154049
 10.4675512953644407 22.4400000000000048  9.0749990250154049
 10.8675512953644358  2.7399999999999505  9.0749990250154049
 10.2828529677710421 12.3099999999998904 14.9749971543131917
 10.3828529677710417 17.0099999999998985 14.9749971543131917
 10.5828529677710410  7.4099999999999078 14.9749971543131917
 10.3828529677710453 22.3099999999999739 14.9749971543131917
 10.7828529677710403  2.6099999999999213 14.9749971543131917
 10.1982342728487172 12.1799999999998594 20.7749953153178026
 10.2982342728487168 16.8799999999998676 20.7749953153178026
 10.4982342728487161  7.2799999999998768 20.7749953153178026
 10.2982342728487239 22.1799999999999429 20.7749953153178026
 10.6982342728487154  2.4799999999998903 20.7749953153178026
 22.6024686128033636 12.6999999999999851  4.9000009829113020
  6.6024686128032775 17.3999999999999915  4.9000009829113020
 22.7024686128033650 17.3999999999999915  4.9000009829113020
  6.6024686128032775 12.5999999999999854  4.9000009829113020
  6.4024686128032782  7.9000000000000021  4.9000009829113020
 22.9024686128033679  7.8000000000000025  4.9000009829113020
  6.5024686128032778 22.7000000000000668  4.9000009829113020
 22.7024686128033650 22.7000000000000668  4.9000009829113020
  6.6024686128032775  3.0000000000000151  4.9000009829113020
 23.1024686128033707  3.0000000000000151  4.9000009829113020
 22.5176110198678181 12.5699999999999577 10.9999990487954875
  6.5176110198677861 17.2699999999999640 10.9999990487954875
 22.6176110198678195 17.2699999999999640 10.9999990487954875
  6.5176110198677861 12.4699999999999580 10.9999990487954875
  6.3176110198677868  7.7699999999999747 10.9999990487954875
 22.8176110198678224  7.6699999999999751 10.9999990487954875
  6.4176110198677865 22.5700000000000394 10.9999990487954875
 22.6176110198678195 22.5700000000000394 10.9999990487954875
  6.5176110198677861  2.8699999999999868 10.9999990487954875
 23.0176110198678252  2.8699999999999868 10.9999990487954875
 22.4329126922744209 12.4399999999999284 16.8999971780932761
  6.4329126922744413 17.1399999999999366 16.8999971780932761
 22.5329126922744223 17.1399999999999366 16.8999971780932761
  6.4329126922744413 12.3399999999999288 16.8999971780932761
  6.2329126922744420  7.6399999999999455 16.8999971780932761
 22.7329126922744251  7.5399999999999459 16.8999971780932761
  6.3329126922744416 22.4400000000000119 16.8999971780932761
 22.5329126922744223 22.4400000000000119 16.8999971780932761
  6.4329126922744413  2.7399999999999576 16.8999971780932761
 22.9329126922744280  2.7399999999999576 16.8999971780932761
 22.3482939973520942 12.3099999999998975 22.6999953390978817
  6.3482939973521679 17.0099999999999056 22.6999953390978817
 22.4482939973520956 17.0099999999999056 22.6999953390978817
  6.3482939973521679 12.2099999999998978 22.6999953390978817
  6.1482939973521686  7.5099999999999145 22.6999953390978817
 22.6482939973520985  7.4099999999999149 22.6999953390978817
  6.2482939973521683 22.3099999999999810 22.6999953390978817
 22.4482939973520956 22.3099999999999810 22.6999953390978817
  6.3482939973521679  2.6099999999999266 22.6999953390978817
 22.8482939973521013  2.6099999999999266 22.6999953390978817
 14.5524088882999667 12.5699999999999541  4.9750009591311954
 14.6524088882999663 17.2699999999999605  4.9750009591311954
 14.8524088882999656  7.6699999999999715  4.9750009591311954
 14.6524088882999663 22.5700000000000358  4.9750009591311954
 15.0524088882999649  2.8699999999999832  4.9750009591311954
 14.4675512953644230 12.4399999999999267 11.0749990250153818
 14.5675512953644226 17.1399999999999331 11.0749990250153818
 14.7675512953644219  7.5399999999999441 11.0749990250153818
 14.5675512953644226 22.4400000000000084 11.0749990250153818
 14.9675512953644212  2.7399999999999558 11.0749990250153818
 14.3828529677710275 12.3099999999998975 16.9749971543131721
 14.4828529677710272 17.0099999999999056 16.9749971543131721
 14.6828529677710264  7.4099999999999149 16.9749971543131721
 14.4828529677710272 22.3099999999999810 16.9749971543131721
 14.8828529677710257  2.6099999999999266 16.9749971543131721
 14.2982342728487026 12.1799999999998665 22.7749953153177742
 14.3982342728487023 16.8799999999998747 22.7749953153177742
 14.5982342728487016  7.2799999999998839 22.7749953153177742
 14.3982342728487023 22.1799999999999500 22.7749953153177742
 14.7982342728487009  2.4799999999998956 22.7749953153177742
